C  F  H                                 
   1.00000000000000     
     7.9113985352808234  -13.7029442220323787    0.0000000000000000
     7.9113985352808278   13.7029442220323787    0.0000000000000000
     0.0000000000000000    0.0000000000000000   36.4173130480389986
   C    F    H 
     6     1     5
Direct
  0.5112910456587346  0.5108318013571486  0.4832098606608593
  0.5562219697472982  0.5992101562976484  0.5023430907971981
  0.4682042113565344  0.4221173199005454  0.5408454330461094
  0.5576709578396365  0.6001724826018550  0.5407059019605150
  0.5133513576562313  0.5112419711045881  0.5590410580978075
  0.4675014652387605  0.4226722237816101  0.5024853865888619
  0.5141299826339010  0.5113712788500895  0.5966270018392213
  0.5104283743328619  0.5106095708371585  0.4532476275003480
  0.5906051332935276  0.6682724096203089  0.4873866689113465
  0.5923283141238675  0.6680657475021388  0.5563415956904605
  0.4346839288294085  0.3543680407393012  0.5565729390897457
  0.4323749913520132  0.3534600353627408  0.4876310850439374
 
  0.00000000E+00  0.00000000E+00  0.00000000E+00
  0.00000000E+00  0.00000000E+00  0.00000000E+00
  0.00000000E+00  0.00000000E+00  0.00000000E+00
  0.00000000E+00  0.00000000E+00  0.00000000E+00
  0.00000000E+00  0.00000000E+00  0.00000000E+00
  0.00000000E+00  0.00000000E+00  0.00000000E+00
  0.00000000E+00  0.00000000E+00  0.00000000E+00
  0.00000000E+00  0.00000000E+00  0.00000000E+00
  0.00000000E+00  0.00000000E+00  0.00000000E+00
  0.00000000E+00  0.00000000E+00  0.00000000E+00
  0.00000000E+00  0.00000000E+00  0.00000000E+00
  0.00000000E+00  0.00000000E+00  0.00000000E+00
