 C  H                                   
   1.00000000000000     
     7.9113985352808234  -13.7029442220323787    0.0000000000000000
     7.9113985352808278   13.7029442220323787    0.0000000000000000
     0.0000000000000000    0.0000000000000000   36.4173130480389986
   C    H 
     7     8
Direct
  0.4987108390435182  0.4946647533963500  0.4487651847860974
  0.4554649394422583  0.4087229984407657  0.4693876470053624
  0.5443920673739342  0.5884127674938000  0.5050946972029635
  0.4568566738904849  0.4129196075304193  0.5076939792311350
  0.5011243976940776  0.5027574740371392  0.5261370401434107
  0.5433171275789306  0.5846286150978059  0.4667784315156922
  0.5003349882628925  0.5070507557219486  0.5674665694020291
  0.4231019504426428  0.3452401829188574  0.5236345306103587
  0.5796264878231625  0.6591929428802388  0.5189886374326633
  0.5777735221839038  0.6523138823709331  0.4509309889535373
  0.4206736299386975  0.3379609709651703  0.4555660750585275
  0.4979656068740113  0.4915034606753537  0.4188068400653577
  0.4330125222189665  0.5040232827341100  0.5774328988090929
  0.5034173492576954  0.4452792601499240  0.5798972506992328
  0.5623261127432286  0.5751069155932669  0.5778809118130894
 
  0.00000000E+00  0.00000000E+00  0.00000000E+00
  0.00000000E+00  0.00000000E+00  0.00000000E+00
  0.00000000E+00  0.00000000E+00  0.00000000E+00
  0.00000000E+00  0.00000000E+00  0.00000000E+00
  0.00000000E+00  0.00000000E+00  0.00000000E+00
  0.00000000E+00  0.00000000E+00  0.00000000E+00
  0.00000000E+00  0.00000000E+00  0.00000000E+00
  0.00000000E+00  0.00000000E+00  0.00000000E+00
  0.00000000E+00  0.00000000E+00  0.00000000E+00
  0.00000000E+00  0.00000000E+00  0.00000000E+00
  0.00000000E+00  0.00000000E+00  0.00000000E+00
  0.00000000E+00  0.00000000E+00  0.00000000E+00
  0.00000000E+00  0.00000000E+00  0.00000000E+00
  0.00000000E+00  0.00000000E+00  0.00000000E+00
  0.00000000E+00  0.00000000E+00  0.00000000E+00
