 C  H                                   
   1.00000000000000     
     7.9113985352808234  -13.7029442220323787    0.0000000000000000
     7.9113985352808278   13.7029442220323787    0.0000000000000000
     0.0000000000000000    0.0000000000000000   36.4173130480389986
   C    H 
     7     8
Direct
  0.4987108390435190  0.4946647533963486  0.4487651847860972
  0.4554649394422590  0.4087229984407650  0.4693876470053597
  0.5443920673739344  0.5884127674937990  0.5050946972029658
  0.4568566738904841  0.4129196075304162  0.5076939792311360
  0.5011243976940752  0.5027574740371427  0.5261370401434133
  0.5433171275789314  0.5846286150978058  0.4667784315156913
  0.5003349882628945  0.5070507557219498  0.5674665694020326
  0.4231019504426404  0.3452401829188589  0.5236345306103606
  0.5796264878231641  0.6591929428802374  0.5189886374326661
  0.5777735221839011  0.6523138823709346  0.4509309889535372
  0.4206736299386951  0.3379609709651680  0.4555660750585299
  0.4979656068740086  0.4915034606753514  0.4188068400653547
  0.4330125222189671  0.5040232827341096  0.5774328988090951
  0.5034173492576939  0.4452792601499265  0.5798972506992295
  0.5623261127432295  0.5751069155932691  0.5778809118130883
 
  0.00000000E+00  0.00000000E+00  0.00000000E+00
  0.00000000E+00  0.00000000E+00  0.00000000E+00
  0.00000000E+00  0.00000000E+00  0.00000000E+00
  0.00000000E+00  0.00000000E+00  0.00000000E+00
  0.00000000E+00  0.00000000E+00  0.00000000E+00
  0.00000000E+00  0.00000000E+00  0.00000000E+00
  0.00000000E+00  0.00000000E+00  0.00000000E+00
  0.00000000E+00  0.00000000E+00  0.00000000E+00
  0.00000000E+00  0.00000000E+00  0.00000000E+00
  0.00000000E+00  0.00000000E+00  0.00000000E+00
  0.00000000E+00  0.00000000E+00  0.00000000E+00
  0.00000000E+00  0.00000000E+00  0.00000000E+00
  0.00000000E+00  0.00000000E+00  0.00000000E+00
  0.00000000E+00  0.00000000E+00  0.00000000E+00
  0.00000000E+00  0.00000000E+00  0.00000000E+00
