Mo S  C  H                              
    1.000000000000000     
     7.9113985352808234  -13.7029442220323787    0.0000000000000000
     7.9113985352808278   13.7029442220323787    0.0000000000000000
     0.0000000000000000    0.0000000000000000   36.4173130480389986
   Mo   S    C    H 
    75   150     7     8
Direct
  0.1322025927704189  0.0639558293486644  0.5000697122330422
  0.6662556355360749  0.7308720617351128  0.6713172684241897
  0.2651407142600490  0.9289892406469278  0.6695328358457360
  0.2656291555319541  0.9315229535941398  0.3299813038427786
  0.3320818436215589  0.8638947292439596  0.5000223402036283
  0.7321625685847764  0.8639644430588334  0.5001071947616751
  0.6658226802820408  0.9314719258740638  0.3300258933933904
  0.6657899693430593  0.9298112315573448  0.6701965357303408
  0.2651979203971351  0.7294066028253567  0.6702610696109446
  0.2656631112165115  0.7315405341560961  0.3300286031589508
  0.6657273764528995  0.7315054060360211  0.3300670981687617
  0.3322105702391411  0.6639782523229627  0.5000502056251008
  0.2655720541440019  0.5298833250639419  0.6711294366039127
  0.2657048353405571  0.5316041998028780  0.3300233438333748
  0.3321940194254935  0.4640244800412177  0.5000421776345334
  0.8656763219183574  0.1315424262490694  0.3299988204511735
  0.8658529997434101  0.1295774020054807  0.6701971257343118
  0.2666905563011284  0.3298749618841015  0.6707327066321653
  0.2657918965392270  0.3316240213001933  0.3300140684936252
  0.3321187383418618  0.2639677355039112  0.5000896645469481
  0.9321380084703677  0.2639476581603546  0.5000504385855393
  0.7320914245781651  0.0639426426855891  0.5000213063307370
  0.5321783331960432  0.0639948106097208  0.4999857072957639
  0.4656016922948822  0.1314457272419745  0.3300542409555547
  0.4656159499080488  0.1276913059046194  0.6687294385604261
  0.6657162462262392  0.1314358516902274  0.3300511399157529
  0.6657759931780163  0.1291691076413031  0.6695729163909263
  0.4655316194725216  0.9292705161000541  0.6697059405305552
  0.4657144176754784  0.9314908281057157  0.3300662276414457
  0.5321768990090732  0.8638637943095446  0.5000513601135452
  0.7322115207866915  0.2640180566942760  0.5000027074131523
  0.4649476934860530  0.7304238046448361  0.6703689137653441
  0.4657284309823950  0.7315717480427821  0.3300788699600545
  0.5321853584997953  0.6639252188761873  0.5000892524716960
  0.6656260327536643  0.3314248805612436  0.3301205155974287
  0.6644698503079454  0.3274372457693673  0.6691723274349783
  0.4670299759390844  0.5309524042776204  0.6741330628212481
  0.4657111721502076  0.5315813423647029  0.3300736769993264
  0.5320645162460167  0.4639834372482028  0.5000774555507306
  0.7321540889649683  0.4641108445077577  0.5000374535301546
  0.6655982866789998  0.5314209307570437  0.3300995516672600
  0.6638770664839129  0.5291545187788529  0.6730843597117655
  0.4669886273048434  0.3234958695215582  0.6660119979240875
  0.4656654811952734  0.3315065797048931  0.3301100907111731
  0.5321667084936479  0.2640164679770365  0.5000490840555898
  0.7321429315301202  0.6640218322493325  0.5001488705559538
  0.8657073517826319  0.3315307164781842  0.3301049704247419
  0.8656143904065488  0.3293102569356208  0.6702948770378754
  0.9321094961289660  0.0639225441216595  0.5000982101869482
  0.2653661166267938  0.1293128253882827  0.6689934690903669
  0.0650563812248066  0.7292091101090961  0.6703105938146265
  0.0656992063084303  0.7315266548658741  0.3299840185379992
  0.1321833905503027  0.6639374045066688  0.5000796218342032
  0.9322471185412624  0.6639942450985856  0.5001458218501327
  0.8663440531887119  0.7302016331334968  0.6705994826537278
  0.0652760615804695  0.5294277565853633  0.6705585082778924
  0.0657029826148658  0.5315899460858873  0.3300255069567584
  0.8650315455995994  0.5292556634355918  0.6708513607739945
  0.1322721991813154  0.4640413272617465  0.5000652702226063
  0.0658565756556371  0.3294952378108391  0.6706434192938033
  0.0657217145370339  0.3316475969740864  0.3300231744965600
  0.1321451753933971  0.2639859148700339  0.5000928869054917
  0.8657682688682584  0.9314882287291226  0.3300453826723739
  0.8659451905570563  0.9300005401372289  0.6702738674178406
  0.0660341415359085  0.1296878097226468  0.6700658227979588
  0.0657468428047849  0.1316302163041385  0.3300157692701546
  0.9321810487409152  0.8639551722285503  0.5001179962495712
  0.8656425737776914  0.5314309968817028  0.3300698166015437
  0.8656741749164141  0.7314267762570026  0.3300748266056956
  0.2657354715912135  0.1315609701222584  0.3300114088432906
  0.3321024223560300  0.0639127746302393  0.4999831235692511
  0.1321438607968375  0.8639086173294004  0.5000847778946493
  0.9322215480137999  0.4639706181187861  0.5000817248540272
  0.0656415069241305  0.9297251640928721  0.6699481579152007
  0.0656730735885773  0.9314984009654310  0.3300326570606131
  0.6655381563117615  0.9305091636802771  0.4569579800409898
  0.6656544031026925  0.3307905576909462  0.5430839638984537
  0.7323355496059705  0.2646733230900011  0.3731789894661617
  0.7310125849688873  0.2620634612544350  0.7127408152144241
  0.8654274002425382  0.1305406395927946  0.4569599819844896
  0.8655828110997774  0.3307403808319762  0.4569422560972498
  0.9311300385581518  0.6618988949173499  0.6274580773659508
  0.9322769200898833  0.6646968495688839  0.2869915459709560
  0.7324120150229660  0.2648271142133325  0.2870649724616570
  0.7337030557602944  0.2630869599800008  0.6265637704432621
  0.8656299842880344  0.7306922106513341  0.4570579657403897
  0.6655429732700497  0.3308202390097676  0.4569534038939338
  0.9319192127870650  0.2623849289304161  0.7134863016707911
  0.8654541723019946  0.9306046488783011  0.5432031715176890
  0.9323356115455042  0.0648587573993922  0.2869856047809094
  0.9325049478033023  0.0631209599278080  0.6269873990956398
  0.9323814311431704  0.6629641862946798  0.7137251253544434
  0.7329672048685012  0.0626020428905392  0.6268305526696167
  0.7323101356654291  0.0647360852719103  0.2869295412634187
  0.6655713186249912  0.1307426084894061  0.4568692485657593
  0.7321986116617296  0.0633840289029663  0.7130772035138619
  0.7324278586904995  0.0647481864652519  0.3731135924268472
  0.9324070502553710  0.8648115889583323  0.3731795407610647
  0.9334030460105751  0.8641839876943465  0.7133640696335064
  0.8655213265835826  0.9305925706315819  0.4570100653772968
  0.6654764865901512  0.1307200918582367  0.5430999709958542
  0.9323828540258532  0.2647846789601758  0.3731595194317734
  0.9325474638510372  0.6648346643173468  0.3731259969358902
  0.9329728831161361  0.0633411966676931  0.7132228595818901
  0.7325434010914549  0.8647675034581610  0.2869748080215331
  0.7335021202213099  0.8651620205995485  0.7137545428593910
  0.7325082960083762  0.8648434101371407  0.3731832167658453
  0.7319384860196081  0.8620849006775160  0.6273930554589597
  0.8654714844981513  0.5305266582774095  0.5431559099647245
  0.6655062617852181  0.9306575886520321  0.5431683449629716
  0.9325043008870111  0.4649531358492496  0.3731675221460264
  0.9318692431777365  0.4622011927654412  0.7135769463209698
  0.8656818181346964  0.5307508546758157  0.4570177975436707
  0.7306965790617355  0.6610246056457072  0.6287845502497689
  0.7322960177372124  0.6647044480974671  0.2870258742188980
  0.6656030591119020  0.7306748352278376  0.4570418921523824
  0.7354918970550983  0.6660920688577505  0.7142240307000876
  0.7322182266193948  0.6647873312649466  0.3731655625510157
  0.6654112026804668  0.7307019414818683  0.5432806487624973
  0.9323474514108980  0.4647728824268711  0.2870220219084274
  0.9316509249876148  0.4629962744143370  0.6275249207815179
  0.9329433640026892  0.2632029148720179  0.6273146226097097
  0.8654368934897931  0.3305848053063585  0.5431338110664257
  0.9323106097800320  0.2650016166042093  0.2870071998811525
  0.8654847727216648  0.7306592723387553  0.5432247900356089
  0.7305740520894943  0.4653961735392471  0.6281486978743516
  0.7321924099009749  0.4646791259060024  0.2870394355892714
  0.6652577752283122  0.5307788394180619  0.4570156375750614
  0.7316674697060535  0.4602912917867528  0.7140293950696091
  0.7323316468867773  0.4648735139715683  0.3732252740745636
  0.8653182645789599  0.1305676663031861  0.5431389102820887
  0.9323064492528985  0.0648998642692149  0.3730823823627389
  0.6652966087497134  0.5305583269487215  0.5431802075202370
  0.5325309467730222  0.8623643367301739  0.6269051334768747
  0.5322181108580750  0.4648340852572730  0.3732087385244256
  0.4654728155069066  0.9305237724529007  0.4569591091521019
  0.1317561689362492  0.6624608471846258  0.6272623868703562
  0.0655644234018453  0.9306381601664953  0.5431731967402129
  0.1323095630997173  0.8648285596774059  0.3731029926786888
  0.1325928979532023  0.8633480616139266  0.7129721202599271
  0.0654827201473296  0.9305655009432883  0.4569827756863205
  0.1322351498356156  0.8648157430776564  0.2869329668822544
  0.1311556658590192  0.8618000046101386  0.6268687173283780
  0.2655669284477895  0.1305434394721487  0.5431532919283342
  0.1323739891694444  0.6648623992578564  0.2869265815585962
  0.3321869363645575  0.0647484696671725  0.3731176371426272
  0.2655325639080814  0.1307219128566430  0.4569227992150573
  0.3323543964656466  0.0648723986776005  0.2869296468761320
  0.3310671817916528  0.0613046989149666  0.6259604711803064
  0.2655331371247840  0.3307729778756254  0.5431750985361603
  0.3322718996449296  0.2648136960985994  0.3731681930130222
  0.3375478804852037  0.2639878472915100  0.7115704096607303
  0.2654826263442800  0.3306319600880627  0.4570023365352327
  0.3325230429679067  0.2649636235574135  0.2870087780936856
  0.3324395846104480  0.0631189162801888  0.7120010641755457
  0.0655083486094981  0.7306388412995020  0.4570286034646074
  0.1320771381467338  0.6631854135599511  0.7134019520716066
  0.1322874454794984  0.6649299722143311  0.3731046937805331
  0.0654503956281687  0.1305362847050944  0.5431705282608235
  0.1324663108313544  0.0648860622042662  0.3730931151838206
  0.1338591135339300  0.0636345152618674  0.7127711158326022
  0.0654275302265148  0.1305861475906127  0.4570008453091745
  0.1323476053047301  0.0648393412226085  0.2869816505733169
  0.1310949860410631  0.0623429412910070  0.6265193254170143
  0.0654845798638704  0.3307218673041348  0.5431655303080163
  0.1325222084570612  0.2651123679337317  0.3731016234323405
  0.1328519779679809  0.2622578638221000  0.7135091758665197
  0.0655108294006439  0.3306576991831491  0.4569944819204608
  0.1324265566164300  0.2650611069494957  0.2869605379179987
  0.1333109855187047  0.2640463149488923  0.6274530771056916
  0.0655559795612604  0.5306390395103691  0.5431775057054580
  0.1323932696112848  0.4649638970717831  0.3731264742325919
  0.1314217866818410  0.4626281595346171  0.7138324513754668
  0.0655454723327153  0.5307123043551698  0.4569784494509790
  0.1323327938822061  0.4650039598081364  0.2869454049167359
  0.1328590285358828  0.4630645674993730  0.6276920483572255
  0.0656476643262209  0.7305989314851331  0.5432344345453259
  0.3291110569940159  0.2623218510360488  0.6254149947636662
  0.2656716263303238  0.5307634114599438  0.5431726598455455
  0.3324226965433326  0.4649341593557637  0.3731259021687663
  0.3296613665282919  0.4616101503752787  0.7147450974938891
  0.5303995238298782  0.2606140962841437  0.7116339738887447
  0.4654273678992951  0.3306542135547161  0.4569824462425771
  0.5323145110559366  0.2648286962001123  0.2870578570323588
  0.5340912707135885  0.2589676859939942  0.6243618234141621
  0.4654181307987173  0.5305829854498043  0.5431574470726375
  0.9323080381581761  0.8646689716420113  0.2870014834329311
  0.4654937759136573  0.5306662252725260  0.4569599394993205
  0.5322569385684517  0.4648712862491777  0.2870460984560808
  0.5329478132481782  0.4662590412630578  0.6289564015664695
  0.4654794156929682  0.7304583999647178  0.5431908992849657
  0.5323413446917016  0.6648727247483208  0.3731555820671275
  0.5323734245920946  0.6689481956683494  0.7140445513415798
  0.4655878167322669  0.7305408635383017  0.4569430132654375
  0.5324557144174449  0.6648992158027909  0.2870173809317151
  0.5318338766642796  0.6607509751801928  0.6288100502469831
  0.4654723718206242  0.9305914969189359  0.5430924583161101
  0.5326121491147759  0.8649417061052134  0.3731817061442726
  0.5322820056305559  0.8643451029591134  0.7131616329625388
  0.5321773432245394  0.2646183263467776  0.3732012821489974
  0.5324345371235282  0.8648627788507852  0.2870102382036421
  0.4654345414323231  0.3306136518907437  0.5431828359113240
  0.5324418034608627  0.0649425787018387  0.2870293691796988
  0.2656125407689771  0.5307059453358676  0.4569219701496294
  0.3325165237625285  0.4650562627929702  0.2869623739169214
  0.3362505063188763  0.4652639361295101  0.6291565361816325
  0.2654360382146805  0.7305337679626263  0.5431632857503246
  0.3322334415608950  0.6648673204973150  0.3731768247691249
  0.3318904692906273  0.6640451939885850  0.7137304500690078
  0.2653402989012932  0.7305407650505416  0.4569402994931835
  0.3324378094425455  0.6649303562711708  0.2870022609053322
  0.3315381599457368  0.6618953192498509  0.6273376997187015
  0.2654442660194647  0.9305857887257005  0.5431319568553619
  0.3321689072883984  0.8648928393239856  0.3731463289735117
  0.3322319343341107  0.8635730329328837  0.7128512478421598
  0.2652723461533810  0.9305370106682815  0.4569176946781113
  0.3324003889606857  0.8648767026299353  0.2869689827131126
  0.3317092796791314  0.8617093426510110  0.6267308135423590
  0.4653427660138334  0.1305406502876565  0.5430299880500158
  0.5323743298228081  0.0648655116181729  0.3731447910959602
  0.5323416309477125  0.0629474715644989  0.7124868657640064
  0.4655425055540690  0.1308165452185293  0.4568991548955808
  0.5329235369634944  0.0610922700031651  0.6261129688412552
  0.9318022640636130  0.8625112079632373  0.6270804153422915
  0.5334126512511332  0.4829649323730365  0.7299413354547681
  0.5442030148200203  0.5281369963658165  0.7761416350116122
  0.5987959687455913  0.6228089766491962  0.7905277605544612
  0.5099217070139090  0.4631722096314093  0.8383314137624751
  0.6078371836106129  0.6362843823729065  0.8284860313692448
  0.5643135993040715  0.5574365923135858  0.8529996787962872
  0.5002409002950756  0.4484217460494619  0.8005657066386291
  0.5781936755667374  0.5730179252628176  0.8938027289025499
  0.6506263886159189  0.7104443715080890  0.8393210548430972
  0.4754522690604261  0.4001525001111332  0.8567172791686914
  0.4594248860689305  0.3742566492178412  0.7895064364841318
  0.6353502403479823  0.6863263246819500  0.7726658939646285
  0.6446223307415906  0.5725201012307792  0.9026837381507065
  0.5864458229407319  0.6436611833583541  0.9019461524169188
  0.5164411290321382  0.5148921333064180  0.9090260666145156
  0.5579889065797445  0.4145295589908784  0.6925841196897196
 
  0.00000000E+00  0.00000000E+00  0.00000000E+00
  0.00000000E+00  0.00000000E+00  0.00000000E+00
  0.00000000E+00  0.00000000E+00  0.00000000E+00
  0.00000000E+00  0.00000000E+00  0.00000000E+00
  0.00000000E+00  0.00000000E+00  0.00000000E+00
  0.00000000E+00  0.00000000E+00  0.00000000E+00
  0.00000000E+00  0.00000000E+00  0.00000000E+00
  0.00000000E+00  0.00000000E+00  0.00000000E+00
  0.00000000E+00  0.00000000E+00  0.00000000E+00
  0.00000000E+00  0.00000000E+00  0.00000000E+00
  0.00000000E+00  0.00000000E+00  0.00000000E+00
  0.00000000E+00  0.00000000E+00  0.00000000E+00
  0.00000000E+00  0.00000000E+00  0.00000000E+00
  0.00000000E+00  0.00000000E+00  0.00000000E+00
  0.00000000E+00  0.00000000E+00  0.00000000E+00
  0.00000000E+00  0.00000000E+00  0.00000000E+00
  0.00000000E+00  0.00000000E+00  0.00000000E+00
  0.00000000E+00  0.00000000E+00  0.00000000E+00
  0.00000000E+00  0.00000000E+00  0.00000000E+00
  0.00000000E+00  0.00000000E+00  0.00000000E+00
  0.00000000E+00  0.00000000E+00  0.00000000E+00
  0.00000000E+00  0.00000000E+00  0.00000000E+00
  0.00000000E+00  0.00000000E+00  0.00000000E+00
  0.00000000E+00  0.00000000E+00  0.00000000E+00
  0.00000000E+00  0.00000000E+00  0.00000000E+00
  0.00000000E+00  0.00000000E+00  0.00000000E+00
  0.00000000E+00  0.00000000E+00  0.00000000E+00
  0.00000000E+00  0.00000000E+00  0.00000000E+00
  0.00000000E+00  0.00000000E+00  0.00000000E+00
  0.00000000E+00  0.00000000E+00  0.00000000E+00
  0.00000000E+00  0.00000000E+00  0.00000000E+00
  0.00000000E+00  0.00000000E+00  0.00000000E+00
  0.00000000E+00  0.00000000E+00  0.00000000E+00
  0.00000000E+00  0.00000000E+00  0.00000000E+00
  0.00000000E+00  0.00000000E+00  0.00000000E+00
  0.00000000E+00  0.00000000E+00  0.00000000E+00
  0.00000000E+00  0.00000000E+00  0.00000000E+00
  0.00000000E+00  0.00000000E+00  0.00000000E+00
  0.00000000E+00  0.00000000E+00  0.00000000E+00
  0.00000000E+00  0.00000000E+00  0.00000000E+00
  0.00000000E+00  0.00000000E+00  0.00000000E+00
  0.00000000E+00  0.00000000E+00  0.00000000E+00
  0.00000000E+00  0.00000000E+00  0.00000000E+00
  0.00000000E+00  0.00000000E+00  0.00000000E+00
  0.00000000E+00  0.00000000E+00  0.00000000E+00
  0.00000000E+00  0.00000000E+00  0.00000000E+00
  0.00000000E+00  0.00000000E+00  0.00000000E+00
  0.00000000E+00  0.00000000E+00  0.00000000E+00
  0.00000000E+00  0.00000000E+00  0.00000000E+00
  0.00000000E+00  0.00000000E+00  0.00000000E+00
  0.00000000E+00  0.00000000E+00  0.00000000E+00
  0.00000000E+00  0.00000000E+00  0.00000000E+00
  0.00000000E+00  0.00000000E+00  0.00000000E+00
  0.00000000E+00  0.00000000E+00  0.00000000E+00
  0.00000000E+00  0.00000000E+00  0.00000000E+00
  0.00000000E+00  0.00000000E+00  0.00000000E+00
  0.00000000E+00  0.00000000E+00  0.00000000E+00
  0.00000000E+00  0.00000000E+00  0.00000000E+00
  0.00000000E+00  0.00000000E+00  0.00000000E+00
  0.00000000E+00  0.00000000E+00  0.00000000E+00
  0.00000000E+00  0.00000000E+00  0.00000000E+00
  0.00000000E+00  0.00000000E+00  0.00000000E+00
  0.00000000E+00  0.00000000E+00  0.00000000E+00
  0.00000000E+00  0.00000000E+00  0.00000000E+00
  0.00000000E+00  0.00000000E+00  0.00000000E+00
  0.00000000E+00  0.00000000E+00  0.00000000E+00
  0.00000000E+00  0.00000000E+00  0.00000000E+00
  0.00000000E+00  0.00000000E+00  0.00000000E+00
  0.00000000E+00  0.00000000E+00  0.00000000E+00
  0.00000000E+00  0.00000000E+00  0.00000000E+00
  0.00000000E+00  0.00000000E+00  0.00000000E+00
  0.00000000E+00  0.00000000E+00  0.00000000E+00
  0.00000000E+00  0.00000000E+00  0.00000000E+00
  0.00000000E+00  0.00000000E+00  0.00000000E+00
  0.00000000E+00  0.00000000E+00  0.00000000E+00
  0.00000000E+00  0.00000000E+00  0.00000000E+00
  0.00000000E+00  0.00000000E+00  0.00000000E+00
  0.00000000E+00  0.00000000E+00  0.00000000E+00
  0.00000000E+00  0.00000000E+00  0.00000000E+00
  0.00000000E+00  0.00000000E+00  0.00000000E+00
  0.00000000E+00  0.00000000E+00  0.00000000E+00
  0.00000000E+00  0.00000000E+00  0.00000000E+00
  0.00000000E+00  0.00000000E+00  0.00000000E+00
  0.00000000E+00  0.00000000E+00  0.00000000E+00
  0.00000000E+00  0.00000000E+00  0.00000000E+00
  0.00000000E+00  0.00000000E+00  0.00000000E+00
  0.00000000E+00  0.00000000E+00  0.00000000E+00
  0.00000000E+00  0.00000000E+00  0.00000000E+00
  0.00000000E+00  0.00000000E+00  0.00000000E+00
  0.00000000E+00  0.00000000E+00  0.00000000E+00
  0.00000000E+00  0.00000000E+00  0.00000000E+00
  0.00000000E+00  0.00000000E+00  0.00000000E+00
  0.00000000E+00  0.00000000E+00  0.00000000E+00
  0.00000000E+00  0.00000000E+00  0.00000000E+00
  0.00000000E+00  0.00000000E+00  0.00000000E+00
  0.00000000E+00  0.00000000E+00  0.00000000E+00
  0.00000000E+00  0.00000000E+00  0.00000000E+00
  0.00000000E+00  0.00000000E+00  0.00000000E+00
  0.00000000E+00  0.00000000E+00  0.00000000E+00
  0.00000000E+00  0.00000000E+00  0.00000000E+00
  0.00000000E+00  0.00000000E+00  0.00000000E+00
  0.00000000E+00  0.00000000E+00  0.00000000E+00
  0.00000000E+00  0.00000000E+00  0.00000000E+00
  0.00000000E+00  0.00000000E+00  0.00000000E+00
  0.00000000E+00  0.00000000E+00  0.00000000E+00
  0.00000000E+00  0.00000000E+00  0.00000000E+00
  0.00000000E+00  0.00000000E+00  0.00000000E+00
  0.00000000E+00  0.00000000E+00  0.00000000E+00
  0.00000000E+00  0.00000000E+00  0.00000000E+00
  0.00000000E+00  0.00000000E+00  0.00000000E+00
  0.00000000E+00  0.00000000E+00  0.00000000E+00
  0.00000000E+00  0.00000000E+00  0.00000000E+00
  0.00000000E+00  0.00000000E+00  0.00000000E+00
  0.00000000E+00  0.00000000E+00  0.00000000E+00
  0.00000000E+00  0.00000000E+00  0.00000000E+00
  0.00000000E+00  0.00000000E+00  0.00000000E+00
  0.00000000E+00  0.00000000E+00  0.00000000E+00
  0.00000000E+00  0.00000000E+00  0.00000000E+00
  0.00000000E+00  0.00000000E+00  0.00000000E+00
  0.00000000E+00  0.00000000E+00  0.00000000E+00
  0.00000000E+00  0.00000000E+00  0.00000000E+00
  0.00000000E+00  0.00000000E+00  0.00000000E+00
  0.00000000E+00  0.00000000E+00  0.00000000E+00
  0.00000000E+00  0.00000000E+00  0.00000000E+00
  0.00000000E+00  0.00000000E+00  0.00000000E+00
  0.00000000E+00  0.00000000E+00  0.00000000E+00
  0.00000000E+00  0.00000000E+00  0.00000000E+00
  0.00000000E+00  0.00000000E+00  0.00000000E+00
  0.00000000E+00  0.00000000E+00  0.00000000E+00
  0.00000000E+00  0.00000000E+00  0.00000000E+00
  0.00000000E+00  0.00000000E+00  0.00000000E+00
  0.00000000E+00  0.00000000E+00  0.00000000E+00
  0.00000000E+00  0.00000000E+00  0.00000000E+00
  0.00000000E+00  0.00000000E+00  0.00000000E+00
  0.00000000E+00  0.00000000E+00  0.00000000E+00
  0.00000000E+00  0.00000000E+00  0.00000000E+00
  0.00000000E+00  0.00000000E+00  0.00000000E+00
  0.00000000E+00  0.00000000E+00  0.00000000E+00
  0.00000000E+00  0.00000000E+00  0.00000000E+00
  0.00000000E+00  0.00000000E+00  0.00000000E+00
  0.00000000E+00  0.00000000E+00  0.00000000E+00
  0.00000000E+00  0.00000000E+00  0.00000000E+00
  0.00000000E+00  0.00000000E+00  0.00000000E+00
  0.00000000E+00  0.00000000E+00  0.00000000E+00
  0.00000000E+00  0.00000000E+00  0.00000000E+00
  0.00000000E+00  0.00000000E+00  0.00000000E+00
  0.00000000E+00  0.00000000E+00  0.00000000E+00
  0.00000000E+00  0.00000000E+00  0.00000000E+00
  0.00000000E+00  0.00000000E+00  0.00000000E+00
  0.00000000E+00  0.00000000E+00  0.00000000E+00
  0.00000000E+00  0.00000000E+00  0.00000000E+00
  0.00000000E+00  0.00000000E+00  0.00000000E+00
  0.00000000E+00  0.00000000E+00  0.00000000E+00
  0.00000000E+00  0.00000000E+00  0.00000000E+00
  0.00000000E+00  0.00000000E+00  0.00000000E+00
  0.00000000E+00  0.00000000E+00  0.00000000E+00
  0.00000000E+00  0.00000000E+00  0.00000000E+00
  0.00000000E+00  0.00000000E+00  0.00000000E+00
  0.00000000E+00  0.00000000E+00  0.00000000E+00
  0.00000000E+00  0.00000000E+00  0.00000000E+00
  0.00000000E+00  0.00000000E+00  0.00000000E+00
  0.00000000E+00  0.00000000E+00  0.00000000E+00
  0.00000000E+00  0.00000000E+00  0.00000000E+00
  0.00000000E+00  0.00000000E+00  0.00000000E+00
  0.00000000E+00  0.00000000E+00  0.00000000E+00
  0.00000000E+00  0.00000000E+00  0.00000000E+00
  0.00000000E+00  0.00000000E+00  0.00000000E+00
  0.00000000E+00  0.00000000E+00  0.00000000E+00
  0.00000000E+00  0.00000000E+00  0.00000000E+00
  0.00000000E+00  0.00000000E+00  0.00000000E+00
  0.00000000E+00  0.00000000E+00  0.00000000E+00
  0.00000000E+00  0.00000000E+00  0.00000000E+00
  0.00000000E+00  0.00000000E+00  0.00000000E+00
  0.00000000E+00  0.00000000E+00  0.00000000E+00
  0.00000000E+00  0.00000000E+00  0.00000000E+00
  0.00000000E+00  0.00000000E+00  0.00000000E+00
  0.00000000E+00  0.00000000E+00  0.00000000E+00
  0.00000000E+00  0.00000000E+00  0.00000000E+00
  0.00000000E+00  0.00000000E+00  0.00000000E+00
  0.00000000E+00  0.00000000E+00  0.00000000E+00
  0.00000000E+00  0.00000000E+00  0.00000000E+00
  0.00000000E+00  0.00000000E+00  0.00000000E+00
  0.00000000E+00  0.00000000E+00  0.00000000E+00
  0.00000000E+00  0.00000000E+00  0.00000000E+00
  0.00000000E+00  0.00000000E+00  0.00000000E+00
  0.00000000E+00  0.00000000E+00  0.00000000E+00
  0.00000000E+00  0.00000000E+00  0.00000000E+00
  0.00000000E+00  0.00000000E+00  0.00000000E+00
  0.00000000E+00  0.00000000E+00  0.00000000E+00
  0.00000000E+00  0.00000000E+00  0.00000000E+00
  0.00000000E+00  0.00000000E+00  0.00000000E+00
  0.00000000E+00  0.00000000E+00  0.00000000E+00
  0.00000000E+00  0.00000000E+00  0.00000000E+00
  0.00000000E+00  0.00000000E+00  0.00000000E+00
  0.00000000E+00  0.00000000E+00  0.00000000E+00
  0.00000000E+00  0.00000000E+00  0.00000000E+00
  0.00000000E+00  0.00000000E+00  0.00000000E+00
  0.00000000E+00  0.00000000E+00  0.00000000E+00
  0.00000000E+00  0.00000000E+00  0.00000000E+00
  0.00000000E+00  0.00000000E+00  0.00000000E+00
  0.00000000E+00  0.00000000E+00  0.00000000E+00
  0.00000000E+00  0.00000000E+00  0.00000000E+00
  0.00000000E+00  0.00000000E+00  0.00000000E+00
  0.00000000E+00  0.00000000E+00  0.00000000E+00
  0.00000000E+00  0.00000000E+00  0.00000000E+00
  0.00000000E+00  0.00000000E+00  0.00000000E+00
  0.00000000E+00  0.00000000E+00  0.00000000E+00
  0.00000000E+00  0.00000000E+00  0.00000000E+00
  0.00000000E+00  0.00000000E+00  0.00000000E+00
  0.00000000E+00  0.00000000E+00  0.00000000E+00
  0.00000000E+00  0.00000000E+00  0.00000000E+00
  0.00000000E+00  0.00000000E+00  0.00000000E+00
  0.00000000E+00  0.00000000E+00  0.00000000E+00
  0.00000000E+00  0.00000000E+00  0.00000000E+00
  0.00000000E+00  0.00000000E+00  0.00000000E+00
  0.00000000E+00  0.00000000E+00  0.00000000E+00
  0.00000000E+00  0.00000000E+00  0.00000000E+00
  0.00000000E+00  0.00000000E+00  0.00000000E+00
  0.00000000E+00  0.00000000E+00  0.00000000E+00
  0.00000000E+00  0.00000000E+00  0.00000000E+00
  0.00000000E+00  0.00000000E+00  0.00000000E+00
  0.00000000E+00  0.00000000E+00  0.00000000E+00
  0.00000000E+00  0.00000000E+00  0.00000000E+00
  0.00000000E+00  0.00000000E+00  0.00000000E+00
  0.00000000E+00  0.00000000E+00  0.00000000E+00
  0.00000000E+00  0.00000000E+00  0.00000000E+00
  0.00000000E+00  0.00000000E+00  0.00000000E+00
  0.00000000E+00  0.00000000E+00  0.00000000E+00
  0.00000000E+00  0.00000000E+00  0.00000000E+00
  0.00000000E+00  0.00000000E+00  0.00000000E+00
  0.00000000E+00  0.00000000E+00  0.00000000E+00
  0.00000000E+00  0.00000000E+00  0.00000000E+00
  0.00000000E+00  0.00000000E+00  0.00000000E+00
  0.00000000E+00  0.00000000E+00  0.00000000E+00
  0.00000000E+00  0.00000000E+00  0.00000000E+00
  0.00000000E+00  0.00000000E+00  0.00000000E+00
  0.00000000E+00  0.00000000E+00  0.00000000E+00
  0.00000000E+00  0.00000000E+00  0.00000000E+00
  0.00000000E+00  0.00000000E+00  0.00000000E+00
  0.00000000E+00  0.00000000E+00  0.00000000E+00
