Mo  S                                   
   1.00000000000000     
     7.9113985352808234  -13.7029442220323787    0.0000000000000000
     7.9113985352808278   13.7029442220323787    0.0000000000000000
     0.0000000000000000    0.0000000000000000   36.4173130480389986
   Mo   S 
    75   149
Direct
  0.1333341215157376  0.0666773093073002  0.4999621633042535
  0.6654363784401319  0.7308727568802702  0.6693433804909719
  0.2667590768569524  0.9335181537139033  0.6706523933748024
  0.2666573344282164  0.9333146688564314  0.3299556869867049
  0.3333188896567535  0.8666594448283759  0.4999858045047441
  0.7333269096347301  0.8666538192694586  0.4999827305607735
  0.6666461990638916  0.9333151648654843  0.3300635603362825
  0.6663902629744196  0.9327982393148808  0.6701754034980133
  0.2667590768569524  0.7332409231430478  0.6706523933748024
  0.2666573344282164  0.7333426655717834  0.3299556869867049
  0.6666647692996680  0.7333295385993419  0.3300577630338201
  0.3333348844664570  0.6666651155335431  0.4999373231328843
  0.2678133751618033  0.5333505934506464  0.6702527308300698
  0.2666867168051641  0.5333646174149196  0.3300260234262382
  0.3333372640639782  0.4666428651781390  0.4999296483122421
  0.8666666666666671  0.1333333333333329  0.3301286551338031
  0.8666666666666671  0.1333333333333329  0.6700375775769805
  0.2691272431197300  0.3345636215598677  0.6693433804909719
  0.2666704614006579  0.3333352307003319  0.3300577630338201
  0.3333372640639782  0.2666943988858378  0.4999296483122421
  0.9333496355624044  0.2666992711248141  0.4999951554355421
  0.7333007288751858  0.0666503644375958  0.4999951554355421
  0.5333431877915564  0.0666773093073002  0.4999621633042535
  0.4666353825850801  0.1333220993902429  0.3300260234262382
  0.4666494065493537  0.1344627817111555  0.6702527308300698
  0.6666461990638916  0.1333310341984061  0.3300635603362825
  0.6663902629744196  0.1335920236595374  0.6701754034980133
  0.4667925879567248  0.9333962939783582  0.6705661122643655
  0.4666472421955042  0.9333236210977476  0.3299848415679918
  0.5333431877915564  0.8666658784842624  0.4999621633042535
  0.7333269096347301  0.2666730903652700  0.4999827305607735
  0.4666494065493537  0.7321866248381967  0.6702527308300698
  0.4666353825850801  0.7333132831948357  0.3300260234262382
  0.5333571348218609  0.6666627359360215  0.4999296483122421
  0.6666647692996680  0.3333352307003319  0.3300577630338201
  0.6654363784401319  0.3345636215598677  0.6693433804909719
  0.4688161935811905  0.5311838064188098  0.6682773531713615
  0.4666723387315323  0.5333276612684678  0.3300445768929426
  0.5333333333333314  0.4666666666666686  0.4999038959582418
  0.7333056011141621  0.4666428651781390  0.4999296483122421
  0.6666553225369368  0.5333276612684678  0.3300445768929426
  0.6623676128376205  0.5311838064188098  0.6682773531713615
  0.4688161935811905  0.3376323871623796  0.6682773531713615
  0.4666723387315323  0.3333446774630632  0.3300445768929426
  0.5333571348218609  0.2666943988858378  0.4999296483122421
  0.7333056011141621  0.6666627359360215  0.4999296483122421
  0.8666689658015939  0.3333538009361081  0.3300635603362825
  0.8664079763404626  0.3336097370255804  0.6701754034980133
  0.9333496355624044  0.0666503644375958  0.4999951554355421
  0.2678133751618033  0.1344627817111555  0.6702527308300698
  0.0664818462860969  0.7332409231430478  0.6706523933748024
  0.0666853311435684  0.7333426655717834  0.3299556869867049
  0.1333405551716239  0.6666811103432466  0.4999858045047441
  0.9333302310670875  0.6666651155335431  0.4999373231328843
  0.8655372182888446  0.7321866248381967  0.6702527308300698
  0.0666037060216420  0.5332074120432752  0.6705661122643655
  0.0666763789022522  0.5333527578044958  0.3299848415679918
  0.8655372182888446  0.5333505934506464  0.6702527308300698
  0.1333341215157376  0.4666568122084432  0.4999621633042535
  0.0672017606851190  0.3336097370255804  0.6701754034980133
  0.0666848351345156  0.3333538009361081  0.3300635603362825
  0.1333461807305412  0.2666730903652700  0.4999827305607735
  0.8666689658015939  0.9333151648654843  0.3300635603362825
  0.8664079763404626  0.9327982393148808  0.6701754034980133
  0.0672017606851190  0.1335920236595374  0.6701754034980133
  0.0666848351345156  0.1333310341984061  0.3300635603362825
  0.9333226906926996  0.8666658784842624  0.4999621633042535
  0.8666779006097566  0.5333646174149196  0.3300260234262382
  0.8666779006097566  0.7333132831948357  0.3300260234262382
  0.2666867168051641  0.1333220993902429  0.3300260234262382
  0.3333348844664570  0.0666697689329125  0.4999373231328843
  0.1333405551716239  0.8666594448283759  0.4999858045047441
  0.9333226906926996  0.4666568122084432  0.4999621633042535
  0.0666037060216420  0.9333962939783582  0.6705661122643655
  0.0666763789022522  0.9333236210977476  0.3299848415679918
  0.6666937059994906  0.9333553222607229  0.4568862378629132
  0.6666374236675385  0.3333625763324617  0.5430724012301632
  0.7333198110032291  0.2666801889967713  0.3731509169368525
  0.7321987932744347  0.2678012067255656  0.7128014864852198
  0.8666666666666671  0.1333333333333329  0.4569427169453627
  0.8666616162612337  0.3333062940005093  0.4568862378629132
  0.9336902376937535  0.6668451188468761  0.6273974198196054
  0.9332910719611542  0.6666455359805764  0.2869443551558586
  0.7333302187108562  0.2666697812891438  0.2870037958697540
  0.7331973274836390  0.2668026725163611  0.6269650513494730
  0.8666422247398086  0.7333309587128075  0.4568432830028978
  0.6666688624426979  0.3333311375573019  0.4568486505243315
  0.9333479083200522  0.2666958166401100  0.7131062664459487
  0.8667020610154084  0.9333346111139356  0.5430875055382635
  0.9333154390781763  0.0666845609218241  0.2870560977794398
  0.9335843865957817  0.0664156134042180  0.6270673227766659
  0.9322599055576356  0.6661299527788167  0.7135054225681347
  0.7328312268084302  0.0664156134042180  0.6270673227766659
  0.7333691218436424  0.0666845609218241  0.2870560977794398
  0.6666937059994906  0.1333383837387661  0.4568862378629132
  0.7333041833598900  0.0666520916799478  0.7131062664459487
  0.7331758473250249  0.0665879236625155  0.3731961699209356
  0.9334250625972501  0.8666325556298011  0.3731111282453384
  0.9321426519471606  0.8657238228936125  0.7133882039071957
  0.8666616162612337  0.9333553222607229  0.4568862378629132
  0.6666325500985290  0.1332979389845917  0.5430875055382635
  0.9334120763374846  0.2668241526749746  0.3731961699209356
  0.9335601647175747  0.6667800823587865  0.3731275346243459
  0.9333479083200522  0.0666520916799478  0.7131062664459487
  0.7333302187108562  0.8666604374217111  0.2870037958697540
  0.7321987932744347  0.8643975865488674  0.7128014864852198
  0.7333198110032291  0.8666396220064561  0.3731509169368525
  0.7331973274836390  0.8663946549672764  0.6269650513494730
  0.8666328513911539  0.5333469758388888  0.5430165444275220
  0.6666325500985290  0.9333346111139356  0.5430875055382635
  0.9334250625972501  0.4667925069674548  0.3731111282453384
  0.9321426519471606  0.4664188290535536  0.7133882039071957
  0.8666422247398086  0.5333112660270000  0.4568432830028978
  0.7333710199366538  0.6651589764757706  0.6262180980349136
  0.7332548931277955  0.6666544128623267  0.2869992729589900
  0.6666688624426979  0.7333377248854018  0.4568486505243315
  0.7276678462408563  0.6612603651606215  0.7123626493686658
  0.7333562457668596  0.6666625906015703  0.3731489323751239
  0.6666374236675385  0.7332748473350823  0.5430724012301632
  0.9332825459117836  0.4665845781593859  0.2869746531217678
  0.9334081006300485  0.4671959465195463  0.6273200482260898
  0.9335843865957817  0.2671687731915696  0.6270673227766659
  0.8667020610154084  0.3333674499014713  0.5430875055382635
  0.9333154390781763  0.2666308781563577  0.2870560977794398
  0.8666328513911539  0.7332858755522635  0.5430165444275220
  0.7333710199366538  0.4682120434608814  0.6262180980349136
  0.7332548931277955  0.4666004802654674  0.2869992729589900
  0.6666695208295108  0.5333347604147548  0.4568248002429961
  0.7276678462408563  0.4664074810802337  0.7123626493686658
  0.7333562457668596  0.4666936551652877  0.3731489323751239
  0.8666666666666671  0.1333333333333329  0.5430668565102709
  0.9334120763374846  0.0665879236625155  0.3731961699209356
  0.6666500577516092  0.5333250288758037  0.5429730251826657
  0.5328040534804539  0.8662121541105084  0.6273200482260898
  0.5333333333333314  0.4666666666666686  0.3731161462073645
  0.4666887665040726  0.9333443832520321  0.4568824392248226
  0.1333484354578932  0.6666968709157848  0.6275511379731586
  0.0666573755454520  0.9333426244545482  0.5430573174912766
  0.1333602933364267  0.8666397066635733  0.3730581500951194
  0.1331955331088535  0.8668044668911469  0.7136802427937063
  0.0666556167479680  0.9333443832520321  0.4568824392248226
  0.1333232047728453  0.8666767952271546  0.2869072275630148
  0.1333484354578932  0.8666515645421069  0.6275511379731586
  0.2667141244477366  0.1333671486088461  0.5430165444275220
  0.1333232047728453  0.6666464095456894  0.2869072275630148
  0.3332199176412133  0.0664398352824253  0.3731275346243459
  0.2666690412871925  0.1333577752601910  0.4568432830028978
  0.3333544640194236  0.0667089280388459  0.2869443551558586
  0.3331548811531240  0.0663097623062462  0.6273974198196054
  0.2667251526649173  0.3333625763324617  0.5430724012301632
  0.3333374093984299  0.2666437542331405  0.3731489323751239
  0.3387396348393789  0.2723321537591437  0.7123626493686658
  0.2666622751145982  0.3333311375573019  0.4568486505243315
  0.3333455871376732  0.2667451068722048  0.2869992729589900
  0.3338700472211829  0.0677400944423643  0.7135054225681347
  0.0666638587584671  0.7333319293792326  0.4568664552817147
  0.1331955331088535  0.6663910662177055  0.7136802427937063
  0.1333602933364267  0.6667205866728521  0.3730581500951194
  0.0666653888860644  0.1332979389845917  0.5430875055382635
  0.1333674443701991  0.0665749374027499  0.3731111282453384
  0.1342761771063876  0.0678573480528398  0.7133882039071957
  0.0666446777392769  0.1333383837387661  0.4568862378629132
  0.1333020322475968  0.0667174540882165  0.2869746531217678
  0.1337878458894919  0.0665918993699513  0.6273200482260898
  0.0666653888860644  0.3333674499014713  0.5430875055382635
  0.1333603779935436  0.2666801889967713  0.3731509169368525
  0.1356024134511325  0.2678012067255656  0.7128014864852198
  0.0666446777392769  0.3333062940005093  0.4568862378629132
  0.1333395625782889  0.2666697812891438  0.2870037958697540
  0.1336053450327236  0.2668026725163611  0.6269650513494730
  0.0666573755454520  0.5333147510908954  0.5430573174912766
  0.1333674443701991  0.4667925069674548  0.3731111282453384
  0.1342761771063876  0.4664188290535536  0.7133882039071957
  0.0666556167479680  0.5333112334959276  0.4568824392248226
  0.1333020322475968  0.4665845781593859  0.2869746531217678
  0.1337878458894919  0.4671959465195463  0.6273200482260898
  0.0665758050109585  0.7332879025054786  0.5430948740184947
  0.3348410235242293  0.2666289800633465  0.6262180980349136
  0.2667141244477366  0.5333469758388888  0.5430165444275220
  0.3333374093984299  0.4666936551652877  0.3731489323751239
  0.3387396348393789  0.4664074810802337  0.7123626493686658
  0.5335925189197660  0.2723321537591437  0.7123626493686658
  0.4666652395852453  0.3333304791704892  0.4568248002429961
  0.5333995197345329  0.2667451068722048  0.2869992729589900
  0.5317879565391183  0.2666289800633465  0.6262180980349136
  0.4666749711241961  0.5333250288758037  0.5429730251826657
  0.9332825459117836  0.8666979677524033  0.2869746531217678
  0.4666652395852453  0.5333347604147548  0.4568248002429961
  0.5333333333333314  0.4666666666666686  0.2869773143174427
  0.5333333333333314  0.4666666666666686  0.6247470308048572
  0.4666530241611109  0.7332858755522635  0.5430165444275220
  0.5333063448347120  0.6666625906015703  0.3731489323751239
  0.5335925189197660  0.6612603651606215  0.7123626493686658
  0.4666887339730000  0.7333309587128075  0.4568432830028978
  0.5333995197345329  0.6666544128623267  0.2869992729589900
  0.5317879565391183  0.6651589764757706  0.6262180980349136
  0.4666852489091046  0.9333426244545482  0.5430573174912766
  0.5332074930325451  0.8666325556298011  0.3731111282453384
  0.5335811709464464  0.8657238228936125  0.7133882039071957
  0.5333063448347120  0.2666437542331405  0.3731489323751239
  0.5334154218406142  0.8666979677524033  0.2869746531217678
  0.4666749711241961  0.3333499422483908  0.5429730251826657
  0.5334154218406142  0.0667174540882165  0.2869746531217678
  0.2666690412871925  0.5333112660270000  0.4568432830028978
  0.3333455871376732  0.4666004802654674  0.2869992729589900
  0.3348410235242293  0.4682120434608814  0.6262180980349136
  0.2667120974945215  0.7332879025054786  0.5430948740184947
  0.3332199176412133  0.6667800823587865  0.3731275346243459
  0.3338700472211829  0.6661299527788167  0.7135054225681347
  0.2666680706207672  0.7333319293792326  0.4568664552817147
  0.3333544640194236  0.6666455359805764  0.2869443551558586
  0.3331548811531240  0.6668451188468761  0.6273974198196054
  0.2667120974945215  0.9334241949890415  0.5430948740184947
  0.3332794133271479  0.8666397066635733  0.3730581500951194
  0.3336089337822945  0.8668044668911469  0.7136802427937063
  0.2666680706207672  0.9333361412415330  0.4568664552817147
  0.3333535904543107  0.8666767952271546  0.2869072275630148
  0.3333031290842151  0.8666515645421069  0.6275511379731586
  0.4666530241611109  0.1333671486088461  0.5430165444275220
  0.5332074930325451  0.0665749374027499  0.3731111282453384
  0.5335811709464464  0.0678573480528398  0.7133882039071957
  0.4666887339730000  0.1333577752601910  0.4568432830028978
  0.5328040534804539  0.0665918993699513  0.6273200482260898
  0.9334081006300485  0.8662121541105084  0.6273200482260898
 
  0.00000000E+00  0.00000000E+00  0.00000000E+00
  0.00000000E+00  0.00000000E+00  0.00000000E+00
  0.00000000E+00  0.00000000E+00  0.00000000E+00
  0.00000000E+00  0.00000000E+00  0.00000000E+00
  0.00000000E+00  0.00000000E+00  0.00000000E+00
  0.00000000E+00  0.00000000E+00  0.00000000E+00
  0.00000000E+00  0.00000000E+00  0.00000000E+00
  0.00000000E+00  0.00000000E+00  0.00000000E+00
  0.00000000E+00  0.00000000E+00  0.00000000E+00
  0.00000000E+00  0.00000000E+00  0.00000000E+00
  0.00000000E+00  0.00000000E+00  0.00000000E+00
  0.00000000E+00  0.00000000E+00  0.00000000E+00
  0.00000000E+00  0.00000000E+00  0.00000000E+00
  0.00000000E+00  0.00000000E+00  0.00000000E+00
  0.00000000E+00  0.00000000E+00  0.00000000E+00
  0.00000000E+00  0.00000000E+00  0.00000000E+00
  0.00000000E+00  0.00000000E+00  0.00000000E+00
  0.00000000E+00  0.00000000E+00  0.00000000E+00
  0.00000000E+00  0.00000000E+00  0.00000000E+00
  0.00000000E+00  0.00000000E+00  0.00000000E+00
  0.00000000E+00  0.00000000E+00  0.00000000E+00
  0.00000000E+00  0.00000000E+00  0.00000000E+00
  0.00000000E+00  0.00000000E+00  0.00000000E+00
  0.00000000E+00  0.00000000E+00  0.00000000E+00
  0.00000000E+00  0.00000000E+00  0.00000000E+00
  0.00000000E+00  0.00000000E+00  0.00000000E+00
  0.00000000E+00  0.00000000E+00  0.00000000E+00
  0.00000000E+00  0.00000000E+00  0.00000000E+00
  0.00000000E+00  0.00000000E+00  0.00000000E+00
  0.00000000E+00  0.00000000E+00  0.00000000E+00
  0.00000000E+00  0.00000000E+00  0.00000000E+00
  0.00000000E+00  0.00000000E+00  0.00000000E+00
  0.00000000E+00  0.00000000E+00  0.00000000E+00
  0.00000000E+00  0.00000000E+00  0.00000000E+00
  0.00000000E+00  0.00000000E+00  0.00000000E+00
  0.00000000E+00  0.00000000E+00  0.00000000E+00
  0.00000000E+00  0.00000000E+00  0.00000000E+00
  0.00000000E+00  0.00000000E+00  0.00000000E+00
  0.00000000E+00  0.00000000E+00  0.00000000E+00
  0.00000000E+00  0.00000000E+00  0.00000000E+00
  0.00000000E+00  0.00000000E+00  0.00000000E+00
  0.00000000E+00  0.00000000E+00  0.00000000E+00
  0.00000000E+00  0.00000000E+00  0.00000000E+00
  0.00000000E+00  0.00000000E+00  0.00000000E+00
  0.00000000E+00  0.00000000E+00  0.00000000E+00
  0.00000000E+00  0.00000000E+00  0.00000000E+00
  0.00000000E+00  0.00000000E+00  0.00000000E+00
  0.00000000E+00  0.00000000E+00  0.00000000E+00
  0.00000000E+00  0.00000000E+00  0.00000000E+00
  0.00000000E+00  0.00000000E+00  0.00000000E+00
  0.00000000E+00  0.00000000E+00  0.00000000E+00
  0.00000000E+00  0.00000000E+00  0.00000000E+00
  0.00000000E+00  0.00000000E+00  0.00000000E+00
  0.00000000E+00  0.00000000E+00  0.00000000E+00
  0.00000000E+00  0.00000000E+00  0.00000000E+00
  0.00000000E+00  0.00000000E+00  0.00000000E+00
  0.00000000E+00  0.00000000E+00  0.00000000E+00
  0.00000000E+00  0.00000000E+00  0.00000000E+00
  0.00000000E+00  0.00000000E+00  0.00000000E+00
  0.00000000E+00  0.00000000E+00  0.00000000E+00
  0.00000000E+00  0.00000000E+00  0.00000000E+00
  0.00000000E+00  0.00000000E+00  0.00000000E+00
  0.00000000E+00  0.00000000E+00  0.00000000E+00
  0.00000000E+00  0.00000000E+00  0.00000000E+00
  0.00000000E+00  0.00000000E+00  0.00000000E+00
  0.00000000E+00  0.00000000E+00  0.00000000E+00
  0.00000000E+00  0.00000000E+00  0.00000000E+00
  0.00000000E+00  0.00000000E+00  0.00000000E+00
  0.00000000E+00  0.00000000E+00  0.00000000E+00
  0.00000000E+00  0.00000000E+00  0.00000000E+00
  0.00000000E+00  0.00000000E+00  0.00000000E+00
  0.00000000E+00  0.00000000E+00  0.00000000E+00
  0.00000000E+00  0.00000000E+00  0.00000000E+00
  0.00000000E+00  0.00000000E+00  0.00000000E+00
  0.00000000E+00  0.00000000E+00  0.00000000E+00
  0.00000000E+00  0.00000000E+00  0.00000000E+00
  0.00000000E+00  0.00000000E+00  0.00000000E+00
  0.00000000E+00  0.00000000E+00  0.00000000E+00
  0.00000000E+00  0.00000000E+00  0.00000000E+00
  0.00000000E+00  0.00000000E+00  0.00000000E+00
  0.00000000E+00  0.00000000E+00  0.00000000E+00
  0.00000000E+00  0.00000000E+00  0.00000000E+00
  0.00000000E+00  0.00000000E+00  0.00000000E+00
  0.00000000E+00  0.00000000E+00  0.00000000E+00
  0.00000000E+00  0.00000000E+00  0.00000000E+00
  0.00000000E+00  0.00000000E+00  0.00000000E+00
  0.00000000E+00  0.00000000E+00  0.00000000E+00
  0.00000000E+00  0.00000000E+00  0.00000000E+00
  0.00000000E+00  0.00000000E+00  0.00000000E+00
  0.00000000E+00  0.00000000E+00  0.00000000E+00
  0.00000000E+00  0.00000000E+00  0.00000000E+00
  0.00000000E+00  0.00000000E+00  0.00000000E+00
  0.00000000E+00  0.00000000E+00  0.00000000E+00
  0.00000000E+00  0.00000000E+00  0.00000000E+00
  0.00000000E+00  0.00000000E+00  0.00000000E+00
  0.00000000E+00  0.00000000E+00  0.00000000E+00
  0.00000000E+00  0.00000000E+00  0.00000000E+00
  0.00000000E+00  0.00000000E+00  0.00000000E+00
  0.00000000E+00  0.00000000E+00  0.00000000E+00
  0.00000000E+00  0.00000000E+00  0.00000000E+00
  0.00000000E+00  0.00000000E+00  0.00000000E+00
  0.00000000E+00  0.00000000E+00  0.00000000E+00
  0.00000000E+00  0.00000000E+00  0.00000000E+00
  0.00000000E+00  0.00000000E+00  0.00000000E+00
  0.00000000E+00  0.00000000E+00  0.00000000E+00
  0.00000000E+00  0.00000000E+00  0.00000000E+00
  0.00000000E+00  0.00000000E+00  0.00000000E+00
  0.00000000E+00  0.00000000E+00  0.00000000E+00
  0.00000000E+00  0.00000000E+00  0.00000000E+00
  0.00000000E+00  0.00000000E+00  0.00000000E+00
  0.00000000E+00  0.00000000E+00  0.00000000E+00
  0.00000000E+00  0.00000000E+00  0.00000000E+00
  0.00000000E+00  0.00000000E+00  0.00000000E+00
  0.00000000E+00  0.00000000E+00  0.00000000E+00
  0.00000000E+00  0.00000000E+00  0.00000000E+00
  0.00000000E+00  0.00000000E+00  0.00000000E+00
  0.00000000E+00  0.00000000E+00  0.00000000E+00
  0.00000000E+00  0.00000000E+00  0.00000000E+00
  0.00000000E+00  0.00000000E+00  0.00000000E+00
  0.00000000E+00  0.00000000E+00  0.00000000E+00
  0.00000000E+00  0.00000000E+00  0.00000000E+00
  0.00000000E+00  0.00000000E+00  0.00000000E+00
  0.00000000E+00  0.00000000E+00  0.00000000E+00
  0.00000000E+00  0.00000000E+00  0.00000000E+00
  0.00000000E+00  0.00000000E+00  0.00000000E+00
  0.00000000E+00  0.00000000E+00  0.00000000E+00
  0.00000000E+00  0.00000000E+00  0.00000000E+00
  0.00000000E+00  0.00000000E+00  0.00000000E+00
  0.00000000E+00  0.00000000E+00  0.00000000E+00
  0.00000000E+00  0.00000000E+00  0.00000000E+00
  0.00000000E+00  0.00000000E+00  0.00000000E+00
  0.00000000E+00  0.00000000E+00  0.00000000E+00
  0.00000000E+00  0.00000000E+00  0.00000000E+00
  0.00000000E+00  0.00000000E+00  0.00000000E+00
  0.00000000E+00  0.00000000E+00  0.00000000E+00
  0.00000000E+00  0.00000000E+00  0.00000000E+00
  0.00000000E+00  0.00000000E+00  0.00000000E+00
  0.00000000E+00  0.00000000E+00  0.00000000E+00
  0.00000000E+00  0.00000000E+00  0.00000000E+00
  0.00000000E+00  0.00000000E+00  0.00000000E+00
  0.00000000E+00  0.00000000E+00  0.00000000E+00
  0.00000000E+00  0.00000000E+00  0.00000000E+00
  0.00000000E+00  0.00000000E+00  0.00000000E+00
  0.00000000E+00  0.00000000E+00  0.00000000E+00
  0.00000000E+00  0.00000000E+00  0.00000000E+00
  0.00000000E+00  0.00000000E+00  0.00000000E+00
  0.00000000E+00  0.00000000E+00  0.00000000E+00
  0.00000000E+00  0.00000000E+00  0.00000000E+00
  0.00000000E+00  0.00000000E+00  0.00000000E+00
  0.00000000E+00  0.00000000E+00  0.00000000E+00
  0.00000000E+00  0.00000000E+00  0.00000000E+00
  0.00000000E+00  0.00000000E+00  0.00000000E+00
  0.00000000E+00  0.00000000E+00  0.00000000E+00
  0.00000000E+00  0.00000000E+00  0.00000000E+00
  0.00000000E+00  0.00000000E+00  0.00000000E+00
  0.00000000E+00  0.00000000E+00  0.00000000E+00
  0.00000000E+00  0.00000000E+00  0.00000000E+00
  0.00000000E+00  0.00000000E+00  0.00000000E+00
  0.00000000E+00  0.00000000E+00  0.00000000E+00
  0.00000000E+00  0.00000000E+00  0.00000000E+00
  0.00000000E+00  0.00000000E+00  0.00000000E+00
  0.00000000E+00  0.00000000E+00  0.00000000E+00
  0.00000000E+00  0.00000000E+00  0.00000000E+00
  0.00000000E+00  0.00000000E+00  0.00000000E+00
  0.00000000E+00  0.00000000E+00  0.00000000E+00
  0.00000000E+00  0.00000000E+00  0.00000000E+00
  0.00000000E+00  0.00000000E+00  0.00000000E+00
  0.00000000E+00  0.00000000E+00  0.00000000E+00
  0.00000000E+00  0.00000000E+00  0.00000000E+00
  0.00000000E+00  0.00000000E+00  0.00000000E+00
  0.00000000E+00  0.00000000E+00  0.00000000E+00
  0.00000000E+00  0.00000000E+00  0.00000000E+00
  0.00000000E+00  0.00000000E+00  0.00000000E+00
  0.00000000E+00  0.00000000E+00  0.00000000E+00
  0.00000000E+00  0.00000000E+00  0.00000000E+00
  0.00000000E+00  0.00000000E+00  0.00000000E+00
  0.00000000E+00  0.00000000E+00  0.00000000E+00
  0.00000000E+00  0.00000000E+00  0.00000000E+00
  0.00000000E+00  0.00000000E+00  0.00000000E+00
  0.00000000E+00  0.00000000E+00  0.00000000E+00
  0.00000000E+00  0.00000000E+00  0.00000000E+00
  0.00000000E+00  0.00000000E+00  0.00000000E+00
  0.00000000E+00  0.00000000E+00  0.00000000E+00
  0.00000000E+00  0.00000000E+00  0.00000000E+00
  0.00000000E+00  0.00000000E+00  0.00000000E+00
  0.00000000E+00  0.00000000E+00  0.00000000E+00
  0.00000000E+00  0.00000000E+00  0.00000000E+00
  0.00000000E+00  0.00000000E+00  0.00000000E+00
  0.00000000E+00  0.00000000E+00  0.00000000E+00
  0.00000000E+00  0.00000000E+00  0.00000000E+00
  0.00000000E+00  0.00000000E+00  0.00000000E+00
  0.00000000E+00  0.00000000E+00  0.00000000E+00
  0.00000000E+00  0.00000000E+00  0.00000000E+00
  0.00000000E+00  0.00000000E+00  0.00000000E+00
  0.00000000E+00  0.00000000E+00  0.00000000E+00
  0.00000000E+00  0.00000000E+00  0.00000000E+00
  0.00000000E+00  0.00000000E+00  0.00000000E+00
  0.00000000E+00  0.00000000E+00  0.00000000E+00
  0.00000000E+00  0.00000000E+00  0.00000000E+00
  0.00000000E+00  0.00000000E+00  0.00000000E+00
  0.00000000E+00  0.00000000E+00  0.00000000E+00
  0.00000000E+00  0.00000000E+00  0.00000000E+00
  0.00000000E+00  0.00000000E+00  0.00000000E+00
  0.00000000E+00  0.00000000E+00  0.00000000E+00
  0.00000000E+00  0.00000000E+00  0.00000000E+00
  0.00000000E+00  0.00000000E+00  0.00000000E+00
  0.00000000E+00  0.00000000E+00  0.00000000E+00
  0.00000000E+00  0.00000000E+00  0.00000000E+00
  0.00000000E+00  0.00000000E+00  0.00000000E+00
  0.00000000E+00  0.00000000E+00  0.00000000E+00
  0.00000000E+00  0.00000000E+00  0.00000000E+00
  0.00000000E+00  0.00000000E+00  0.00000000E+00
  0.00000000E+00  0.00000000E+00  0.00000000E+00
  0.00000000E+00  0.00000000E+00  0.00000000E+00
  0.00000000E+00  0.00000000E+00  0.00000000E+00
  0.00000000E+00  0.00000000E+00  0.00000000E+00
  0.00000000E+00  0.00000000E+00  0.00000000E+00
  0.00000000E+00  0.00000000E+00  0.00000000E+00
  0.00000000E+00  0.00000000E+00  0.00000000E+00
  0.00000000E+00  0.00000000E+00  0.00000000E+00
  0.00000000E+00  0.00000000E+00  0.00000000E+00
  0.00000000E+00  0.00000000E+00  0.00000000E+00
  0.00000000E+00  0.00000000E+00  0.00000000E+00
  0.00000000E+00  0.00000000E+00  0.00000000E+00
