Mo  S                                   
   1.00000000000000     
     7.9113985352808234  -13.7029442220323787    0.0000000000000000
     7.9113985352808278   13.7029442220323787    0.0000000000000000
     0.0000000000000000    0.0000000000000000   36.4173130480389986
   Mo   S 
    75   149
Direct
  0.1333341215157375  0.0666773093073019  0.4999621633042537
  0.6654363784401340  0.7308727568802738  0.6693433804909716
  0.2667590768569497  0.9335181537139050  0.6706523933748016
  0.2666573344282170  0.9333146688564327  0.3299556869867075
  0.3333188896567520  0.8666594448283789  0.4999858045047461
  0.7333269096347266  0.8666538192694588  0.4999827305607738
  0.6666461990638908  0.9333151648654834  0.3300635603362849
  0.6663902629744172  0.9327982393148773  0.6701754034980141
  0.2667590768569497  0.7332409231430503  0.6706523933748016
  0.2666573344282170  0.7333426655717830  0.3299556869867075
  0.6666647692996648  0.7333295385993424  0.3300577630338211
  0.3333348844664599  0.6666651155335401  0.4999373231328832
  0.2678133751618006  0.5333505934506491  0.6702527308300716
  0.2666867168051610  0.5333646174149180  0.3300260234262353
  0.3333372640639780  0.4666428651781374  0.4999296483122393
  0.8666666666666671  0.1333333333333329  0.3301286551338052
  0.8666666666666671  0.1333333333333329  0.6700375775769771
  0.2691272431197334  0.3345636215598660  0.6693433804909716
  0.2666704614006576  0.3333352307003352  0.3300577630338211
  0.3333372640639780  0.2666943988858392  0.4999296483122393
  0.9333496355624078  0.2666992711248142  0.4999951554355420
  0.7333007288751858  0.0666503644375993  0.4999951554355420
  0.5333431877915586  0.0666773093073019  0.4999621633042537
  0.4666353825850820  0.1333220993902415  0.3300260234262353
  0.4666494065493509  0.1344627817111572  0.6702527308300716
  0.6666461990638908  0.1333310341984060  0.3300635603362849
  0.6663902629744172  0.1335920236595385  0.6701754034980141
  0.4667925879567250  0.9333962939783618  0.6705661122643676
  0.4666472421955064  0.9333236210977489  0.3299848415679918
  0.5333431877915586  0.8666658784842625  0.4999621633042537
  0.7333269096347266  0.2666730903652734  0.4999827305607738
  0.4666494065493509  0.7321866248381994  0.6702527308300716
  0.4666353825850820  0.7333132831948390  0.3300260234262353
  0.5333571348218626  0.6666627359360220  0.4999296483122393
  0.6666647692996648  0.3333352307003352  0.3300577630338211
  0.6654363784401340  0.3345636215598660  0.6693433804909716
  0.4688161935811905  0.5311838064188095  0.6682773531713622
  0.4666723387315344  0.5333276612684656  0.3300445768929450
  0.5333333333333314  0.4666666666666686  0.4999038959582407
  0.7333056011141608  0.4666428651781374  0.4999296483122393
  0.6666553225369398  0.5333276612684656  0.3300445768929450
  0.6623676128376204  0.5311838064188095  0.6682773531713622
  0.4688161935811905  0.3376323871623796  0.6682773531713622
  0.4666723387315344  0.3333446774630602  0.3300445768929450
  0.5333571348218626  0.2666943988858392  0.4999296483122393
  0.7333056011141608  0.6666627359360220  0.4999296483122393
  0.8666689658015940  0.3333538009361092  0.3300635603362849
  0.8664079763404615  0.3336097370255828  0.6701754034980141
  0.9333496355624078  0.0666503644375993  0.4999951554355420
  0.2678133751618006  0.1344627817111572  0.6702527308300716
  0.0664818462860950  0.7332409231430503  0.6706523933748016
  0.0666853311435673  0.7333426655717830  0.3299556869867075
  0.1333405551716211  0.6666811103432480  0.4999858045047461
  0.9333302310670888  0.6666651155335401  0.4999373231328832
  0.8655372182888428  0.7321866248381994  0.6702527308300716
  0.0666037060216453  0.5332074120432750  0.6705661122643676
  0.0666763789022511  0.5333527578044936  0.3299848415679918
  0.8655372182888428  0.5333505934506491  0.6702527308300716
  0.1333341215157375  0.4666568122084414  0.4999621633042537
  0.0672017606851156  0.3336097370255828  0.6701754034980141
  0.0666848351345166  0.3333538009361092  0.3300635603362849
  0.1333461807305412  0.2666730903652734  0.4999827305607738
  0.8666689658015940  0.9333151648654834  0.3300635603362849
  0.8664079763404615  0.9327982393148773  0.6701754034980141
  0.0672017606851156  0.1335920236595385  0.6701754034980141
  0.0666848351345166  0.1333310341984060  0.3300635603362849
  0.9333226906926981  0.8666658784842625  0.4999621633042537
  0.8666779006097585  0.5333646174149180  0.3300260234262353
  0.8666779006097585  0.7333132831948390  0.3300260234262353
  0.2666867168051610  0.1333220993902415  0.3300260234262353
  0.3333348844664599  0.0666697689329112  0.4999373231328832
  0.1333405551716211  0.8666594448283789  0.4999858045047461
  0.9333226906926981  0.4666568122084414  0.4999621633042537
  0.0666037060216453  0.9333962939783618  0.6705661122643676
  0.0666763789022511  0.9333236210977489  0.3299848415679918
  0.6666937059994922  0.9333553222607236  0.4568862378629106
  0.6666374236675381  0.3333625763324619  0.5430724012301624
  0.7333198110032271  0.2666801889967729  0.3731509169368508
  0.7321987932744349  0.2678012067255651  0.7128014864852190
  0.8666666666666671  0.1333333333333329  0.4569427169453633
  0.8666616162612328  0.3333062940005078  0.4568862378629106
  0.9336902376937530  0.6668451188468794  0.6273974198196086
  0.9332910719611576  0.6666455359805781  0.2869443551558604
  0.7333302187108544  0.2666697812891456  0.2870037958697509
  0.7331973274836372  0.2668026725163628  0.6269650513494724
  0.8666422247398060  0.7333309587128056  0.4568432830028968
  0.6666688624426982  0.3333311375573018  0.4568486505243285
  0.9333479083200515  0.2666958166401088  0.7131062664459478
  0.8667020610154097  0.9333346111139349  0.5430875055382600
  0.9333154390781786  0.0666845609218214  0.2870560977794412
  0.9335843865957827  0.0664156134042173  0.6270673227766679
  0.9322599055576362  0.6661299527788174  0.7135054225681330
  0.7328312268084289  0.0664156134042173  0.6270673227766679
  0.7333691218436442  0.0666845609218214  0.2870560977794412
  0.6666937059994922  0.1333383837387672  0.4568862378629106
  0.7333041833598912  0.0666520916799485  0.7131062664459478
  0.7331758473250218  0.0665879236625173  0.3731961699209378
  0.9334250625972516  0.8666325556297991  0.3731111282453412
  0.9321426519471601  0.8657238228936137  0.7133882039071935
  0.8666616162612328  0.9333553222607236  0.4568862378629106
  0.6666325500985266  0.1332979389845903  0.5430875055382600
  0.9334120763374827  0.2668241526749711  0.3731961699209378
  0.9335601647175764  0.6667800823587839  0.3731275346243450
  0.9333479083200515  0.0666520916799485  0.7131062664459478
  0.7333302187108544  0.8666604374217144  0.2870037958697509
  0.7321987932744349  0.8643975865488684  0.7128014864852190
  0.7333198110032271  0.8666396220064527  0.3731509169368508
  0.7331973274836372  0.8663946549672730  0.6269650513494724
  0.8666328513911523  0.5333469758388887  0.5430165444275232
  0.6666325500985266  0.9333346111139349  0.5430875055382600
  0.9334250625972516  0.4667925069674581  0.3731111282453412
  0.9321426519471601  0.4664188290535520  0.7133882039071935
  0.8666422247398060  0.5333112660269990  0.4568432830028968
  0.7333710199366550  0.6651589764757730  0.6262180980349115
  0.7332548931277927  0.6666544128623286  0.2869992729589868
  0.6666688624426982  0.7333377248854021  0.4568486505243285
  0.7276678462408555  0.6612603651606221  0.7123626493686643
  0.7333562457668563  0.6666625906015682  0.3731489323751234
  0.6666374236675381  0.7332748473350819  0.5430724012301624
  0.9332825459117871  0.4665845781593845  0.2869746531217672
  0.9334081006300465  0.4671959465195457  0.6273200482260890
  0.9335843865957827  0.2671687731915711  0.6270673227766679
  0.8667020610154097  0.3333674499014734  0.5430875055382600
  0.9333154390781786  0.2666308781563558  0.2870560977794412
  0.8666328513911523  0.7332858755522622  0.5430165444275232
  0.7333710199366550  0.4682120434608805  0.6262180980349115
  0.7332548931277927  0.4666004802654697  0.2869992729589868
  0.6666695208295081  0.5333347604147534  0.4568248002429982
  0.7276678462408555  0.4664074810802319  0.7123626493686643
  0.7333562457668563  0.4666936551652867  0.3731489323751234
  0.8666666666666671  0.1333333333333329  0.5430668565102721
  0.9334120763374827  0.0665879236625173  0.3731961699209378
  0.6666500577516103  0.5333250288758009  0.5429730251826683
  0.5328040534804543  0.8662121541105066  0.6273200482260890
  0.5333333333333314  0.4666666666666686  0.3731161462073658
  0.4666887665040704  0.9333443832520345  0.4568824392248203
  0.1333484354578900  0.6666968709157857  0.6275511379731569
  0.0666573755454536  0.9333426244545464  0.5430573174912752
  0.1333602933364233  0.8666397066635767  0.3730581500951189
  0.1331955331088537  0.8668044668911463  0.7136802427937070
  0.0666556167479655  0.9333443832520345  0.4568824392248203
  0.1333232047728430  0.8666767952271570  0.2869072275630131
  0.1333484354578900  0.8666515645421100  0.6275511379731569
  0.2667141244477378  0.1333671486088477  0.5430165444275232
  0.1333232047728430  0.6666464095456917  0.2869072275630131
  0.3332199176412161  0.0664398352824236  0.3731275346243450
  0.2666690412871944  0.1333577752601940  0.4568432830028968
  0.3333544640194219  0.0667089280388424  0.2869443551558604
  0.3331548811531206  0.0663097623062470  0.6273974198196086
  0.2667251526649181  0.3333625763324619  0.5430724012301624
  0.3333374093984318  0.2666437542331437  0.3731489323751234
  0.3387396348393779  0.2723321537591445  0.7123626493686643
  0.2666622751145979  0.3333311375573018  0.4568486505243285
  0.3333455871376714  0.2667451068722073  0.2869992729589868
  0.3338700472211826  0.0677400944423638  0.7135054225681330
  0.0666638587584671  0.7333319293792329  0.4568664552817125
  0.1331955331088537  0.6663910662177059  0.7136802427937070
  0.1333602933364233  0.6667205866728523  0.3730581500951189
  0.0666653888860651  0.1332979389845903  0.5430875055382600
  0.1333674443702009  0.0665749374027484  0.3731111282453412
  0.1342761771063863  0.0678573480528399  0.7133882039071935
  0.0666446777392764  0.1333383837387672  0.4568862378629106
  0.1333020322475988  0.0667174540882201  0.2869746531217672
  0.1337878458894934  0.0665918993699535  0.6273200482260890
  0.0666653888860651  0.3333674499014734  0.5430875055382600
  0.1333603779935402  0.2666801889967729  0.3731509169368508
  0.1356024134511316  0.2678012067255651  0.7128014864852190
  0.0666446777392764  0.3333062940005078  0.4568862378629106
  0.1333395625782856  0.2666697812891456  0.2870037958697509
  0.1336053450327270  0.2668026725163628  0.6269650513494724
  0.0666573755454536  0.5333147510908987  0.5430573174912752
  0.1333674443702009  0.4667925069674581  0.3731111282453412
  0.1342761771063863  0.4664188290535520  0.7133882039071935
  0.0666556167479655  0.5333112334959296  0.4568824392248203
  0.1333020322475988  0.4665845781593845  0.2869746531217672
  0.1337878458894934  0.4671959465195457  0.6273200482260890
  0.0665758050109559  0.7332879025054808  0.5430948740184931
  0.3348410235242270  0.2666289800633450  0.6262180980349115
  0.2667141244477378  0.5333469758388887  0.5430165444275232
  0.3333374093984318  0.4666936551652867  0.3731489323751234
  0.3387396348393779  0.4664074810802319  0.7123626493686643
  0.5335925189197681  0.2723321537591445  0.7123626493686643
  0.4666652395852466  0.3333304791704919  0.4568248002429982
  0.5333995197345303  0.2667451068722073  0.2869992729589868
  0.5317879565391195  0.2666289800633450  0.6262180980349115
  0.4666749711241991  0.5333250288758009  0.5429730251826683
  0.9332825459117871  0.8666979677524012  0.2869746531217672
  0.4666652395852466  0.5333347604147534  0.4568248002429982
  0.5333333333333314  0.4666666666666686  0.2869773143174399
  0.5333333333333314  0.4666666666666686  0.6247470308048548
  0.4666530241611113  0.7332858755522622  0.5430165444275232
  0.5333063448347133  0.6666625906015682  0.3731489323751234
  0.5335925189197681  0.6612603651606221  0.7123626493686643
  0.4666887339730010  0.7333309587128056  0.4568432830028968
  0.5333995197345303  0.6666544128623286  0.2869992729589868
  0.5317879565391195  0.6651589764757730  0.6262180980349115
  0.4666852489091013  0.9333426244545464  0.5430573174912752
  0.5332074930325419  0.8666325556297991  0.3731111282453412
  0.5335811709464480  0.8657238228936137  0.7133882039071935
  0.5333063448347133  0.2666437542331437  0.3731489323751234
  0.5334154218406155  0.8666979677524012  0.2869746531217672
  0.4666749711241991  0.3333499422483897  0.5429730251826683
  0.5334154218406155  0.0667174540882201  0.2869746531217672
  0.2666690412871944  0.5333112660269990  0.4568432830028968
  0.3333455871376714  0.4666004802654697  0.2869992729589868
  0.3348410235242270  0.4682120434608805  0.6262180980349115
  0.2667120974945192  0.7332879025054808  0.5430948740184931
  0.3332199176412161  0.6667800823587839  0.3731275346243450
  0.3338700472211826  0.6661299527788174  0.7135054225681330
  0.2666680706207671  0.7333319293792329  0.4568664552817125
  0.3333544640194219  0.6666455359805781  0.2869443551558604
  0.3331548811531206  0.6668451188468794  0.6273974198196086
  0.2667120974945192  0.9334241949890441  0.5430948740184931
  0.3332794133271477  0.8666397066635767  0.3730581500951189
  0.3336089337822941  0.8668044668911463  0.7136802427937070
  0.2666680706207671  0.9333361412415329  0.4568664552817125
  0.3333535904543083  0.8666767952271570  0.2869072275630131
  0.3333031290842143  0.8666515645421100  0.6275511379731569
  0.4666530241611113  0.1333671486088477  0.5430165444275232
  0.5332074930325419  0.0665749374027484  0.3731111282453412
  0.5335811709464480  0.0678573480528399  0.7133882039071935
  0.4666887339730010  0.1333577752601940  0.4568432830028968
  0.5328040534804543  0.0665918993699535  0.6273200482260890
  0.9334081006300465  0.8662121541105066  0.6273200482260890
 
  0.00000000E+00  0.00000000E+00  0.00000000E+00
  0.00000000E+00  0.00000000E+00  0.00000000E+00
  0.00000000E+00  0.00000000E+00  0.00000000E+00
  0.00000000E+00  0.00000000E+00  0.00000000E+00
  0.00000000E+00  0.00000000E+00  0.00000000E+00
  0.00000000E+00  0.00000000E+00  0.00000000E+00
  0.00000000E+00  0.00000000E+00  0.00000000E+00
  0.00000000E+00  0.00000000E+00  0.00000000E+00
  0.00000000E+00  0.00000000E+00  0.00000000E+00
  0.00000000E+00  0.00000000E+00  0.00000000E+00
  0.00000000E+00  0.00000000E+00  0.00000000E+00
  0.00000000E+00  0.00000000E+00  0.00000000E+00
  0.00000000E+00  0.00000000E+00  0.00000000E+00
  0.00000000E+00  0.00000000E+00  0.00000000E+00
  0.00000000E+00  0.00000000E+00  0.00000000E+00
  0.00000000E+00  0.00000000E+00  0.00000000E+00
  0.00000000E+00  0.00000000E+00  0.00000000E+00
  0.00000000E+00  0.00000000E+00  0.00000000E+00
  0.00000000E+00  0.00000000E+00  0.00000000E+00
  0.00000000E+00  0.00000000E+00  0.00000000E+00
  0.00000000E+00  0.00000000E+00  0.00000000E+00
  0.00000000E+00  0.00000000E+00  0.00000000E+00
  0.00000000E+00  0.00000000E+00  0.00000000E+00
  0.00000000E+00  0.00000000E+00  0.00000000E+00
  0.00000000E+00  0.00000000E+00  0.00000000E+00
  0.00000000E+00  0.00000000E+00  0.00000000E+00
  0.00000000E+00  0.00000000E+00  0.00000000E+00
  0.00000000E+00  0.00000000E+00  0.00000000E+00
  0.00000000E+00  0.00000000E+00  0.00000000E+00
  0.00000000E+00  0.00000000E+00  0.00000000E+00
  0.00000000E+00  0.00000000E+00  0.00000000E+00
  0.00000000E+00  0.00000000E+00  0.00000000E+00
  0.00000000E+00  0.00000000E+00  0.00000000E+00
  0.00000000E+00  0.00000000E+00  0.00000000E+00
  0.00000000E+00  0.00000000E+00  0.00000000E+00
  0.00000000E+00  0.00000000E+00  0.00000000E+00
  0.00000000E+00  0.00000000E+00  0.00000000E+00
  0.00000000E+00  0.00000000E+00  0.00000000E+00
  0.00000000E+00  0.00000000E+00  0.00000000E+00
  0.00000000E+00  0.00000000E+00  0.00000000E+00
  0.00000000E+00  0.00000000E+00  0.00000000E+00
  0.00000000E+00  0.00000000E+00  0.00000000E+00
  0.00000000E+00  0.00000000E+00  0.00000000E+00
  0.00000000E+00  0.00000000E+00  0.00000000E+00
  0.00000000E+00  0.00000000E+00  0.00000000E+00
  0.00000000E+00  0.00000000E+00  0.00000000E+00
  0.00000000E+00  0.00000000E+00  0.00000000E+00
  0.00000000E+00  0.00000000E+00  0.00000000E+00
  0.00000000E+00  0.00000000E+00  0.00000000E+00
  0.00000000E+00  0.00000000E+00  0.00000000E+00
  0.00000000E+00  0.00000000E+00  0.00000000E+00
  0.00000000E+00  0.00000000E+00  0.00000000E+00
  0.00000000E+00  0.00000000E+00  0.00000000E+00
  0.00000000E+00  0.00000000E+00  0.00000000E+00
  0.00000000E+00  0.00000000E+00  0.00000000E+00
  0.00000000E+00  0.00000000E+00  0.00000000E+00
  0.00000000E+00  0.00000000E+00  0.00000000E+00
  0.00000000E+00  0.00000000E+00  0.00000000E+00
  0.00000000E+00  0.00000000E+00  0.00000000E+00
  0.00000000E+00  0.00000000E+00  0.00000000E+00
  0.00000000E+00  0.00000000E+00  0.00000000E+00
  0.00000000E+00  0.00000000E+00  0.00000000E+00
  0.00000000E+00  0.00000000E+00  0.00000000E+00
  0.00000000E+00  0.00000000E+00  0.00000000E+00
  0.00000000E+00  0.00000000E+00  0.00000000E+00
  0.00000000E+00  0.00000000E+00  0.00000000E+00
  0.00000000E+00  0.00000000E+00  0.00000000E+00
  0.00000000E+00  0.00000000E+00  0.00000000E+00
  0.00000000E+00  0.00000000E+00  0.00000000E+00
  0.00000000E+00  0.00000000E+00  0.00000000E+00
  0.00000000E+00  0.00000000E+00  0.00000000E+00
  0.00000000E+00  0.00000000E+00  0.00000000E+00
  0.00000000E+00  0.00000000E+00  0.00000000E+00
  0.00000000E+00  0.00000000E+00  0.00000000E+00
  0.00000000E+00  0.00000000E+00  0.00000000E+00
  0.00000000E+00  0.00000000E+00  0.00000000E+00
  0.00000000E+00  0.00000000E+00  0.00000000E+00
  0.00000000E+00  0.00000000E+00  0.00000000E+00
  0.00000000E+00  0.00000000E+00  0.00000000E+00
  0.00000000E+00  0.00000000E+00  0.00000000E+00
  0.00000000E+00  0.00000000E+00  0.00000000E+00
  0.00000000E+00  0.00000000E+00  0.00000000E+00
  0.00000000E+00  0.00000000E+00  0.00000000E+00
  0.00000000E+00  0.00000000E+00  0.00000000E+00
  0.00000000E+00  0.00000000E+00  0.00000000E+00
  0.00000000E+00  0.00000000E+00  0.00000000E+00
  0.00000000E+00  0.00000000E+00  0.00000000E+00
  0.00000000E+00  0.00000000E+00  0.00000000E+00
  0.00000000E+00  0.00000000E+00  0.00000000E+00
  0.00000000E+00  0.00000000E+00  0.00000000E+00
  0.00000000E+00  0.00000000E+00  0.00000000E+00
  0.00000000E+00  0.00000000E+00  0.00000000E+00
  0.00000000E+00  0.00000000E+00  0.00000000E+00
  0.00000000E+00  0.00000000E+00  0.00000000E+00
  0.00000000E+00  0.00000000E+00  0.00000000E+00
  0.00000000E+00  0.00000000E+00  0.00000000E+00
  0.00000000E+00  0.00000000E+00  0.00000000E+00
  0.00000000E+00  0.00000000E+00  0.00000000E+00
  0.00000000E+00  0.00000000E+00  0.00000000E+00
  0.00000000E+00  0.00000000E+00  0.00000000E+00
  0.00000000E+00  0.00000000E+00  0.00000000E+00
  0.00000000E+00  0.00000000E+00  0.00000000E+00
  0.00000000E+00  0.00000000E+00  0.00000000E+00
  0.00000000E+00  0.00000000E+00  0.00000000E+00
  0.00000000E+00  0.00000000E+00  0.00000000E+00
  0.00000000E+00  0.00000000E+00  0.00000000E+00
  0.00000000E+00  0.00000000E+00  0.00000000E+00
  0.00000000E+00  0.00000000E+00  0.00000000E+00
  0.00000000E+00  0.00000000E+00  0.00000000E+00
  0.00000000E+00  0.00000000E+00  0.00000000E+00
  0.00000000E+00  0.00000000E+00  0.00000000E+00
  0.00000000E+00  0.00000000E+00  0.00000000E+00
  0.00000000E+00  0.00000000E+00  0.00000000E+00
  0.00000000E+00  0.00000000E+00  0.00000000E+00
  0.00000000E+00  0.00000000E+00  0.00000000E+00
  0.00000000E+00  0.00000000E+00  0.00000000E+00
  0.00000000E+00  0.00000000E+00  0.00000000E+00
  0.00000000E+00  0.00000000E+00  0.00000000E+00
  0.00000000E+00  0.00000000E+00  0.00000000E+00
  0.00000000E+00  0.00000000E+00  0.00000000E+00
  0.00000000E+00  0.00000000E+00  0.00000000E+00
  0.00000000E+00  0.00000000E+00  0.00000000E+00
  0.00000000E+00  0.00000000E+00  0.00000000E+00
  0.00000000E+00  0.00000000E+00  0.00000000E+00
  0.00000000E+00  0.00000000E+00  0.00000000E+00
  0.00000000E+00  0.00000000E+00  0.00000000E+00
  0.00000000E+00  0.00000000E+00  0.00000000E+00
  0.00000000E+00  0.00000000E+00  0.00000000E+00
  0.00000000E+00  0.00000000E+00  0.00000000E+00
  0.00000000E+00  0.00000000E+00  0.00000000E+00
  0.00000000E+00  0.00000000E+00  0.00000000E+00
  0.00000000E+00  0.00000000E+00  0.00000000E+00
  0.00000000E+00  0.00000000E+00  0.00000000E+00
  0.00000000E+00  0.00000000E+00  0.00000000E+00
  0.00000000E+00  0.00000000E+00  0.00000000E+00
  0.00000000E+00  0.00000000E+00  0.00000000E+00
  0.00000000E+00  0.00000000E+00  0.00000000E+00
  0.00000000E+00  0.00000000E+00  0.00000000E+00
  0.00000000E+00  0.00000000E+00  0.00000000E+00
  0.00000000E+00  0.00000000E+00  0.00000000E+00
  0.00000000E+00  0.00000000E+00  0.00000000E+00
  0.00000000E+00  0.00000000E+00  0.00000000E+00
  0.00000000E+00  0.00000000E+00  0.00000000E+00
  0.00000000E+00  0.00000000E+00  0.00000000E+00
  0.00000000E+00  0.00000000E+00  0.00000000E+00
  0.00000000E+00  0.00000000E+00  0.00000000E+00
  0.00000000E+00  0.00000000E+00  0.00000000E+00
  0.00000000E+00  0.00000000E+00  0.00000000E+00
  0.00000000E+00  0.00000000E+00  0.00000000E+00
  0.00000000E+00  0.00000000E+00  0.00000000E+00
  0.00000000E+00  0.00000000E+00  0.00000000E+00
  0.00000000E+00  0.00000000E+00  0.00000000E+00
  0.00000000E+00  0.00000000E+00  0.00000000E+00
  0.00000000E+00  0.00000000E+00  0.00000000E+00
  0.00000000E+00  0.00000000E+00  0.00000000E+00
  0.00000000E+00  0.00000000E+00  0.00000000E+00
  0.00000000E+00  0.00000000E+00  0.00000000E+00
  0.00000000E+00  0.00000000E+00  0.00000000E+00
  0.00000000E+00  0.00000000E+00  0.00000000E+00
  0.00000000E+00  0.00000000E+00  0.00000000E+00
  0.00000000E+00  0.00000000E+00  0.00000000E+00
  0.00000000E+00  0.00000000E+00  0.00000000E+00
  0.00000000E+00  0.00000000E+00  0.00000000E+00
  0.00000000E+00  0.00000000E+00  0.00000000E+00
  0.00000000E+00  0.00000000E+00  0.00000000E+00
  0.00000000E+00  0.00000000E+00  0.00000000E+00
  0.00000000E+00  0.00000000E+00  0.00000000E+00
  0.00000000E+00  0.00000000E+00  0.00000000E+00
  0.00000000E+00  0.00000000E+00  0.00000000E+00
  0.00000000E+00  0.00000000E+00  0.00000000E+00
  0.00000000E+00  0.00000000E+00  0.00000000E+00
  0.00000000E+00  0.00000000E+00  0.00000000E+00
  0.00000000E+00  0.00000000E+00  0.00000000E+00
  0.00000000E+00  0.00000000E+00  0.00000000E+00
  0.00000000E+00  0.00000000E+00  0.00000000E+00
  0.00000000E+00  0.00000000E+00  0.00000000E+00
  0.00000000E+00  0.00000000E+00  0.00000000E+00
  0.00000000E+00  0.00000000E+00  0.00000000E+00
  0.00000000E+00  0.00000000E+00  0.00000000E+00
  0.00000000E+00  0.00000000E+00  0.00000000E+00
  0.00000000E+00  0.00000000E+00  0.00000000E+00
  0.00000000E+00  0.00000000E+00  0.00000000E+00
  0.00000000E+00  0.00000000E+00  0.00000000E+00
  0.00000000E+00  0.00000000E+00  0.00000000E+00
  0.00000000E+00  0.00000000E+00  0.00000000E+00
  0.00000000E+00  0.00000000E+00  0.00000000E+00
  0.00000000E+00  0.00000000E+00  0.00000000E+00
  0.00000000E+00  0.00000000E+00  0.00000000E+00
  0.00000000E+00  0.00000000E+00  0.00000000E+00
  0.00000000E+00  0.00000000E+00  0.00000000E+00
  0.00000000E+00  0.00000000E+00  0.00000000E+00
  0.00000000E+00  0.00000000E+00  0.00000000E+00
  0.00000000E+00  0.00000000E+00  0.00000000E+00
  0.00000000E+00  0.00000000E+00  0.00000000E+00
  0.00000000E+00  0.00000000E+00  0.00000000E+00
  0.00000000E+00  0.00000000E+00  0.00000000E+00
  0.00000000E+00  0.00000000E+00  0.00000000E+00
  0.00000000E+00  0.00000000E+00  0.00000000E+00
  0.00000000E+00  0.00000000E+00  0.00000000E+00
  0.00000000E+00  0.00000000E+00  0.00000000E+00
  0.00000000E+00  0.00000000E+00  0.00000000E+00
  0.00000000E+00  0.00000000E+00  0.00000000E+00
  0.00000000E+00  0.00000000E+00  0.00000000E+00
  0.00000000E+00  0.00000000E+00  0.00000000E+00
  0.00000000E+00  0.00000000E+00  0.00000000E+00
  0.00000000E+00  0.00000000E+00  0.00000000E+00
  0.00000000E+00  0.00000000E+00  0.00000000E+00
  0.00000000E+00  0.00000000E+00  0.00000000E+00
  0.00000000E+00  0.00000000E+00  0.00000000E+00
  0.00000000E+00  0.00000000E+00  0.00000000E+00
  0.00000000E+00  0.00000000E+00  0.00000000E+00
  0.00000000E+00  0.00000000E+00  0.00000000E+00
  0.00000000E+00  0.00000000E+00  0.00000000E+00
  0.00000000E+00  0.00000000E+00  0.00000000E+00
  0.00000000E+00  0.00000000E+00  0.00000000E+00
  0.00000000E+00  0.00000000E+00  0.00000000E+00
  0.00000000E+00  0.00000000E+00  0.00000000E+00
  0.00000000E+00  0.00000000E+00  0.00000000E+00
  0.00000000E+00  0.00000000E+00  0.00000000E+00
  0.00000000E+00  0.00000000E+00  0.00000000E+00
  0.00000000E+00  0.00000000E+00  0.00000000E+00
  0.00000000E+00  0.00000000E+00  0.00000000E+00
  0.00000000E+00  0.00000000E+00  0.00000000E+00
  0.00000000E+00  0.00000000E+00  0.00000000E+00
