Mo S 
 1.0000000000000000
     7.9113985352808234  -13.7029442220323787    0.0000000000000000
     7.9113985352808278   13.7029442220323787    0.0000000000000000
     0.0000000000000000    0.0000000000000000   23.1379258980095805
 Mo  S  
  25  50
Cartesian
 11.0759579493931444  0.9135296148022047 11.5694256963678423
  9.4936782423369586  9.1352961480215527 11.5694256963678423
 12.6582376564492769  3.6541184592086222 11.5694256963678423
  7.9113985352808269  6.3947073036151361 11.5694256963678423
  6.3291188282246384  3.6541184592086213 11.5694256963678423
  7.9113985352808234 -10.0488257628237569 11.5694256963678423
  4.7468391211685068  0.9135296148022041 11.5694256963678423
  4.7468391211685059 -4.5676480740108261 11.5694256963678423
  6.3291188282246367 -7.3082369184172418 11.5694256963678423
 11.0759579493931462  6.3947073036150375 11.5694256963678423
  9.4936782423370136  3.6541184592086204 11.5694256963678423
  7.9113985352808252 -4.5676480740107275 11.5694256963678423
  7.9113985352808260  0.9135296148021057 11.5694256963678423
  9.4936782423369568 -1.8270592296043100 11.5694256963678423
  6.3291188282246944 -1.8270592296043116 11.5694256963678423
  9.4936782423370119 -7.3082369184172427 11.5694256963678423
  3.1645594141123188 -1.8270592296043102 11.5694256963678423
  6.3291188282246962  9.1352961480215527 11.5694256963678423
 12.6582376564493320 -1.8270592296043104 11.5694256963678423
  4.7468391211685077  6.3947073036150384 11.5694256963678423
 11.0759579493931426 -4.5676480740108252 11.5694256963678423
  3.1645594141123761  3.6541184592086213 11.5694256963678423
 14.2405173635054627  0.9135296148021068 11.5694256963678423
  1.5822797070561880  0.9135296148021068 11.5694256963678423
  7.9113985352808278 11.8758849924279701 11.5694256963678423
  7.9113985352808243 -6.3947073036151352 13.1372334368511563
 12.6582376564492751 -3.6541184592086209  9.9993075388415757
  7.9113985352808243 -6.3947073036151352  9.9993075388415757
  9.4936782423369550 -9.1352961480215527 13.1372334368511563
  7.9113985352808234 -11.8758849924279701  9.9993075388415757
 12.6582376564492751 -3.6541184592086209 13.1372334368511563
  6.3291188282246926 -9.1352961480215527  9.9993075388415757
  6.3291188282246926 -9.1352961480215527 13.1372334368511563
 14.2405173635054627 -0.9135296148021064 13.1372334368511563
  7.9113985352808234 -11.8758849924279701 13.1372334368511563
 12.6582376564493320  1.8270592296043111 13.1372334368511563
 12.6582376564493320  1.8270592296043111  9.9993075388415757
 11.0759579493931444 -6.3947073036150375 13.1372334368511563
 11.0759579493931444 -0.9135296148022036  9.9993075388415757
 11.0759579493931444 -0.9135296148022036 13.1372334368511563
 11.0759579493931444 -6.3947073036150375  9.9993075388415757
  9.4936782423369550 -9.1352961480215527  9.9993075388415757
  9.4936782423370136 -3.6541184592086200  9.9993075388415757
  9.4936782423370136 -3.6541184592086200 13.1372334368511563
 11.0759579493931444  4.5676480740108252  9.9993075388415757
  6.3291188282246393  7.3082369184172427  9.9993075388415757
  7.9113985352808278 10.0488257628237569 13.1372334368511563
  7.9113985352808278 10.0488257628237569  9.9993075388415757
  3.1645594141123747 -3.6541184592086209  9.9993075388415757
  4.7468391211685059 -0.9135296148022038 13.1372334368511563
  3.1645594141123747 -3.6541184592086209 13.1372334368511563
  6.3291188282246393  7.3082369184172427 13.1372334368511563
  1.5822797070561878 -0.9135296148021069 13.1372334368511563
  1.5822797070561878 -0.9135296148021069  9.9993075388415757
  3.1645594141123192  1.8270592296043102 13.1372334368511563
  3.1645594141123192  1.8270592296043102  9.9993075388415757
  4.7468391211685077  4.5676480740108261 13.1372334368511563
  4.7468391211685077  4.5676480740108261  9.9993075388415757
  4.7468391211685059 -0.9135296148022038  9.9993075388415757
  6.3291188282246953  1.8270592296043116 13.1372334368511563
  6.3291188282246367 -3.6541184592086213 13.1372334368511563
  6.3291188282246367 -3.6541184592086213  9.9993075388415757
  7.9113985352808260 -0.9135296148021058 13.1372334368511563
  7.9113985352808260 -0.9135296148021058  9.9993075388415757
  9.4936782423369568  1.8270592296043107 13.1372334368511563
  9.4936782423369568  1.8270592296043107  9.9993075388415757
 11.0759579493931444  4.5676480740108252 13.1372334368511563
  6.3291188282246953  1.8270592296043116  9.9993075388415757
  7.9113985352808260  4.5676480740107284 13.1372334368511563
  7.9113985352808260  4.5676480740107284  9.9993075388415757
  9.4936782423370136  7.3082369184172427 13.1372334368511563
  9.4936782423370136  7.3082369184172427  9.9993075388415757
  4.7468391211685050 -6.3947073036150384 13.1372334368511563
  4.7468391211685050 -6.3947073036150384  9.9993075388415757
 14.2405173635054627 -0.9135296148021064  9.9993075388415757
