Mo S                                    
   1.00000000000000     
     7.9113985352808234  -13.7029442220323787    0.0000000000000000
     7.9113985352808278   13.7029442220323787    0.0000000000000000
     0.0000000000000000    0.0000000000000000   23.1379258980095805
   Mo   S 
    25    50
Direct
  0.6666666666666643  0.7333333333333343  0.4999831694994157
  0.2666666666666657  0.9333333333333300  0.4999831694994157
  0.6666666666666643  0.9333333333333300  0.4999831694994157
  0.2666666666666657  0.7333333333333343  0.4999831694994157
  0.2666666666666657  0.5333333333333314  0.4999831694994157
  0.8666666666666671  0.1333333333333329  0.4999831694994157
  0.2666666666666657  0.3333333333333357  0.4999831694994157
  0.4666666666666686  0.1333333333333329  0.4999831694994157
  0.6666666666666643  0.1333333333333329  0.4999831694994157
  0.4666666666666686  0.9333333333333300  0.4999831694994157
  0.4666666666666686  0.7333333333333343  0.4999831694994157
  0.6666666666666643  0.3333333333333357  0.4999831694994157
  0.4666666666666686  0.5333333333333314  0.4999831694994157
  0.6666666666666643  0.5333333333333314  0.4999831694994157
  0.4666666666666686  0.3333333333333357  0.4999831694994157
  0.8666666666666671  0.3333333333333357  0.4999831694994157
  0.2666666666666657  0.1333333333333329  0.4999831694994157
  0.0666666666666700  0.7333333333333343  0.4999831694994157
  0.8666666666666671  0.7333333333333343  0.4999831694994157
  0.0666666666666700  0.5333333333333314  0.4999831694994157
  0.8666666666666671  0.5333333333333314  0.4999831694994157
  0.0666666666666700  0.3333333333333357  0.4999831694994157
  0.8666666666666671  0.9333333333333300  0.4999831694994157
  0.0666666666666700  0.1333333333333329  0.4999831694994157
  0.0666666666666700  0.9333333333333300  0.4999831694994157
  0.7333333333333343  0.2666666666666657  0.5677854203226076
  0.9333333333333300  0.6666666666666643  0.4321915546197133
  0.7333333333333343  0.2666666666666657  0.4321915546197133
  0.9333333333333300  0.2666666666666657  0.5677854203226076
  0.9333333333333300  0.0666666666666700  0.4321915546197133
  0.9333333333333300  0.6666666666666643  0.5677854203226076
  0.7333333333333343  0.0666666666666700  0.4321915546197133
  0.7333333333333343  0.0666666666666700  0.5677854203226076
  0.9333333333333300  0.8666666666666671  0.5677854203226076
  0.9333333333333300  0.0666666666666700  0.5677854203226076
  0.7333333333333343  0.8666666666666671  0.5677854203226076
  0.7333333333333343  0.8666666666666671  0.4321915546197133
  0.9333333333333300  0.4666666666666686  0.5677854203226076
  0.7333333333333343  0.6666666666666643  0.4321915546197133
  0.7333333333333343  0.6666666666666643  0.5677854203226076
  0.9333333333333300  0.4666666666666686  0.4321915546197133
  0.9333333333333300  0.2666666666666657  0.4321915546197133
  0.7333333333333343  0.4666666666666686  0.4321915546197133
  0.7333333333333343  0.4666666666666686  0.5677854203226076
  0.5333333333333314  0.8666666666666671  0.4321915546197133
  0.1333333333333329  0.6666666666666643  0.4321915546197133
  0.1333333333333329  0.8666666666666671  0.5677854203226076
  0.1333333333333329  0.8666666666666671  0.4321915546197133
  0.3333333333333357  0.0666666666666700  0.4321915546197133
  0.3333333333333357  0.2666666666666657  0.5677854203226076
  0.3333333333333357  0.0666666666666700  0.5677854203226076
  0.1333333333333329  0.6666666666666643  0.5677854203226076
  0.1333333333333329  0.0666666666666700  0.5677854203226076
  0.1333333333333329  0.0666666666666700  0.4321915546197133
  0.1333333333333329  0.2666666666666657  0.5677854203226076
  0.1333333333333329  0.2666666666666657  0.4321915546197133
  0.1333333333333329  0.4666666666666686  0.5677854203226076
  0.1333333333333329  0.4666666666666686  0.4321915546197133
  0.3333333333333357  0.2666666666666657  0.4321915546197133
  0.3333333333333357  0.4666666666666686  0.5677854203226076
  0.5333333333333314  0.2666666666666657  0.5677854203226076
  0.5333333333333314  0.2666666666666657  0.4321915546197133
  0.5333333333333314  0.4666666666666686  0.5677854203226076
  0.5333333333333314  0.4666666666666686  0.4321915546197133
  0.5333333333333314  0.6666666666666643  0.5677854203226076
  0.5333333333333314  0.6666666666666643  0.4321915546197133
  0.5333333333333314  0.8666666666666671  0.5677854203226076
  0.3333333333333357  0.4666666666666686  0.4321915546197133
  0.3333333333333357  0.6666666666666643  0.5677854203226076
  0.3333333333333357  0.6666666666666643  0.4321915546197133
  0.3333333333333357  0.8666666666666671  0.5677854203226076
  0.3333333333333357  0.8666666666666671  0.4321915546197133
  0.5333333333333314  0.0666666666666700  0.5677854203226076
  0.5333333333333314  0.0666666666666700  0.4321915546197133
  0.9333333333333300  0.8666666666666671  0.4321915546197133
 
  0.00000000E+00  0.00000000E+00  0.00000000E+00
  0.00000000E+00  0.00000000E+00  0.00000000E+00
  0.00000000E+00  0.00000000E+00  0.00000000E+00
  0.00000000E+00  0.00000000E+00  0.00000000E+00
  0.00000000E+00  0.00000000E+00  0.00000000E+00
  0.00000000E+00  0.00000000E+00  0.00000000E+00
  0.00000000E+00  0.00000000E+00  0.00000000E+00
  0.00000000E+00  0.00000000E+00  0.00000000E+00
  0.00000000E+00  0.00000000E+00  0.00000000E+00
  0.00000000E+00  0.00000000E+00  0.00000000E+00
  0.00000000E+00  0.00000000E+00  0.00000000E+00
  0.00000000E+00  0.00000000E+00  0.00000000E+00
  0.00000000E+00  0.00000000E+00  0.00000000E+00
  0.00000000E+00  0.00000000E+00  0.00000000E+00
  0.00000000E+00  0.00000000E+00  0.00000000E+00
  0.00000000E+00  0.00000000E+00  0.00000000E+00
  0.00000000E+00  0.00000000E+00  0.00000000E+00
  0.00000000E+00  0.00000000E+00  0.00000000E+00
  0.00000000E+00  0.00000000E+00  0.00000000E+00
  0.00000000E+00  0.00000000E+00  0.00000000E+00
  0.00000000E+00  0.00000000E+00  0.00000000E+00
  0.00000000E+00  0.00000000E+00  0.00000000E+00
  0.00000000E+00  0.00000000E+00  0.00000000E+00
  0.00000000E+00  0.00000000E+00  0.00000000E+00
  0.00000000E+00  0.00000000E+00  0.00000000E+00
  0.00000000E+00  0.00000000E+00  0.00000000E+00
  0.00000000E+00  0.00000000E+00  0.00000000E+00
  0.00000000E+00  0.00000000E+00  0.00000000E+00
  0.00000000E+00  0.00000000E+00  0.00000000E+00
  0.00000000E+00  0.00000000E+00  0.00000000E+00
  0.00000000E+00  0.00000000E+00  0.00000000E+00
  0.00000000E+00  0.00000000E+00  0.00000000E+00
  0.00000000E+00  0.00000000E+00  0.00000000E+00
  0.00000000E+00  0.00000000E+00  0.00000000E+00
  0.00000000E+00  0.00000000E+00  0.00000000E+00
  0.00000000E+00  0.00000000E+00  0.00000000E+00
  0.00000000E+00  0.00000000E+00  0.00000000E+00
  0.00000000E+00  0.00000000E+00  0.00000000E+00
  0.00000000E+00  0.00000000E+00  0.00000000E+00
  0.00000000E+00  0.00000000E+00  0.00000000E+00
  0.00000000E+00  0.00000000E+00  0.00000000E+00
  0.00000000E+00  0.00000000E+00  0.00000000E+00
  0.00000000E+00  0.00000000E+00  0.00000000E+00
  0.00000000E+00  0.00000000E+00  0.00000000E+00
  0.00000000E+00  0.00000000E+00  0.00000000E+00
  0.00000000E+00  0.00000000E+00  0.00000000E+00
  0.00000000E+00  0.00000000E+00  0.00000000E+00
  0.00000000E+00  0.00000000E+00  0.00000000E+00
  0.00000000E+00  0.00000000E+00  0.00000000E+00
  0.00000000E+00  0.00000000E+00  0.00000000E+00
  0.00000000E+00  0.00000000E+00  0.00000000E+00
  0.00000000E+00  0.00000000E+00  0.00000000E+00
  0.00000000E+00  0.00000000E+00  0.00000000E+00
  0.00000000E+00  0.00000000E+00  0.00000000E+00
  0.00000000E+00  0.00000000E+00  0.00000000E+00
  0.00000000E+00  0.00000000E+00  0.00000000E+00
  0.00000000E+00  0.00000000E+00  0.00000000E+00
  0.00000000E+00  0.00000000E+00  0.00000000E+00
  0.00000000E+00  0.00000000E+00  0.00000000E+00
  0.00000000E+00  0.00000000E+00  0.00000000E+00
  0.00000000E+00  0.00000000E+00  0.00000000E+00
  0.00000000E+00  0.00000000E+00  0.00000000E+00
  0.00000000E+00  0.00000000E+00  0.00000000E+00
  0.00000000E+00  0.00000000E+00  0.00000000E+00
  0.00000000E+00  0.00000000E+00  0.00000000E+00
  0.00000000E+00  0.00000000E+00  0.00000000E+00
  0.00000000E+00  0.00000000E+00  0.00000000E+00
  0.00000000E+00  0.00000000E+00  0.00000000E+00
  0.00000000E+00  0.00000000E+00  0.00000000E+00
  0.00000000E+00  0.00000000E+00  0.00000000E+00
  0.00000000E+00  0.00000000E+00  0.00000000E+00
  0.00000000E+00  0.00000000E+00  0.00000000E+00
  0.00000000E+00  0.00000000E+00  0.00000000E+00
  0.00000000E+00  0.00000000E+00  0.00000000E+00
  0.00000000E+00  0.00000000E+00  0.00000000E+00
