C  H  Mo N  S                           
   1.00000000000000     
     7.9113990000000003  -13.7029440000000005    0.0000000000000000
     7.9113990000000003   13.7029440000000005    0.0000000000000000
     0.0000000000000000    0.0000000000000000   36.4173130000000000
   C    H    Mo   N    S 
     6     7    75     1   150
Direct
  0.5555891088022447  0.5432897254499456  0.7741631294626176
  0.6358621588350527  0.5502444351851070  0.7935631125880979
  0.4993254975246499  0.5812409019841713  0.8303779710458530
  0.6479998573922358  0.5726687120406311  0.8307143075942590
  0.5793553919728949  0.5877924421367543  0.8499039080156219
  0.4878008347256433  0.5599667100554839  0.7930712204519167
  0.5493121593670474  0.6325546689233623  0.8988731334138552
  0.6537064335144950  0.6260025773651170  0.8990566672312525
  0.6881082560623480  0.5354785413446195  0.7794541530295717
  0.5540103548978746  0.4123225819141116  0.6930925810556801
  0.4445725739110294  0.5913448479328055  0.8449454608795276
  0.4240558984324274  0.5534921220642036  0.7789001853363657
  0.7102286585672841  0.5765032493679362  0.8453191517148533
  0.7314271532928401  0.6632764865553673  0.5001343791720808
  0.8651209854699542  0.3299355111456532  0.3300459886299936
  0.8647950249685755  0.3278959958487333  0.6700168995059853
  0.9315627351731139  0.0633958266214177  0.5001235333965063
  0.2644385020188135  0.1277312205354488  0.6689793827406867
  0.0641764596584781  0.7276699129064312  0.6700488323596890
  0.1314830062575967  0.4632913557771650  0.5000197316651914
  0.1313508423241194  0.6631969961750326  0.5000151792999791
  0.9313439223110743  0.6632929822910102  0.5000783601159188
  0.8652144797135699  0.7286151594390740  0.6704357546615094
  0.0643353817619170  0.5279961614261264  0.6702942436969034
  0.0651342944812707  0.5298817239994601  0.3300603631957545
  0.8640644616669955  0.5276323330114981  0.6705357468295615
  0.0651785721538564  0.7298458484585872  0.3300276776137461
  0.0651606777169009  0.3299162116055136  0.3300403402671968
  0.1315524628134991  0.2633835783426317  0.5000704989953284
  0.8650308871424486  0.9298955100649762  0.3300253373901015
  0.8653778898395212  0.9287091705520862  0.6699829866185528
  0.0653091586455842  0.1282443345336353  0.6698897454479621
  0.5315525343568713  0.2631899220660123  0.5000322429825343
  0.9314083426814760  0.8634008280735925  0.5001437146378376
  0.8651467090803281  0.5299311218810174  0.3300716016801868
  0.8650745138122313  0.7299266442648433  0.3300281498652445
  0.2650025219280384  0.1299561179558699  0.3300042368650628
  0.3314701384597107  0.0631406528544767  0.4999433788186435
  0.1313683155782590  0.8632620304975429  0.5000128734948316
  0.9314245936878982  0.4632133162747754  0.5000003610018683
  0.0647876489342012  0.9280640898095557  0.6697241988010918
  0.0650882249169945  0.9297776481204514  0.3299981480066147
  0.0651415917249830  0.3281847586933838  0.6704036212905404
  0.0650284442102502  0.1297927752585836  0.3300737665727076
  0.1315764936580906  0.0633980191113496  0.5000375237156686
  0.6625679915039122  0.5280541812481008  0.6732335015133477
  0.2650501227718822  0.3299977468475875  0.3300417786967915
  0.2658940098996188  0.3283086205746563  0.6706820468772687
  0.8652328752560791  0.1282904120952188  0.6699016065347754
  0.8650869980937994  0.1299048490813768  0.3300303057233998
  0.3315838995662198  0.4633441061425354  0.5000077564874673
  0.2651881441193185  0.5300405380688460  0.3299772133328395
  0.2647048021607520  0.5287005714710447  0.6709022486397900
  0.3314701269105774  0.6631659835412964  0.5000391537151336
  0.3315713984270180  0.2632140522340549  0.5000714033306141
  0.6650465202496634  0.7300194260260026  0.3299797186096770
  0.2645620758551313  0.7280343248954577  0.6700631112364479
  0.6654117432835356  0.9285282828747961  0.6698641170061604
  0.6650698396237388  0.9300593198487834  0.3300551851266992
  0.7314849742730680  0.8632748967594122  0.5001613525257518
  0.3313046680910733  0.8630765290976381  0.4999870152872882
  0.2651477389080337  0.9300125716429394  0.3300157953221675
  0.2642788607987351  0.9273426607091536  0.6693871469167278
  0.6658159050343591  0.7297957701003334  0.6710316483245323
  0.2651167006144817  0.7299747739591825  0.3300144278410505
  0.4660598657146861  0.3214601835550802  0.6661806843797775
  0.9314494261148523  0.2632362890746882  0.5000108497497276
  0.5314613858765262  0.0630622707542947  0.4999724365871881
  0.6650250589260410  0.5299988626469370  0.3300356960711592
  0.7314252311346900  0.4632705787748781  0.5000067790567312
  0.5314555712952282  0.4632186251124502  0.5000367428916663
  0.4650950041857336  0.5299810161384803  0.3300308255035933
  0.4668654079325591  0.5303617624239869  0.6745600410025890
  0.6634388717479776  0.3254892047938122  0.6691370624969470
  0.6650573318032742  0.3299829546739750  0.3300063717155772
  0.5315092644379075  0.6632001863409659  0.5000895209106370
  0.7314843117877727  0.0631927706988935  0.5000535793071273
  0.4651240798467901  0.7300536078076771  0.3300117223988298
  0.7314798737091867  0.2632291255530601  0.4999787520157121
  0.5314185292123098  0.8630147110195866  0.5000521916962558
  0.4651218221293382  0.9301104910230046  0.3301226830227482
  0.4648903529053974  0.9276655125660433  0.6695398569844622
  0.6649685787763435  0.1275315146940671  0.6694524246959354
  0.6651719524089984  0.1301300192304923  0.3300583779641771
  0.4647130430051297  0.1259801365628425  0.6687513080435166
  0.4650882123914832  0.1301075483675662  0.3300255212467665
  0.4648473401671044  0.7291635472396288  0.6703670230103319
  0.4650414894985730  0.3300126642063567  0.3300132564787385
  0.5877255890595501  0.6038405157613931  0.8873639197400087
  0.9316899075727936  0.0632075362891225  0.2869988411365989
  0.4648470815496299  0.5299038862645673  0.5431366626988112
  0.9317092238264961  0.8632531090562001  0.2869758729948849
  0.4649390227393992  0.5300158815459826  0.4569358065290112
  0.5316849924413658  0.4633026859948501  0.2869720300115421
  0.5316928501214233  0.4647625123895520  0.6293050345069954
  0.4647409705625769  0.7296615928571449  0.5431973882677037
  0.5331420559700973  0.2571762026100974  0.6244203569943277
  0.5317786551946703  0.6633620435157099  0.3731059284786331
  0.4648526157805129  0.7297072891840766  0.4569384359905947
  0.5315993833292632  0.6632775208774148  0.2869445532084712
  0.5309404894631906  0.6589389131927335  0.6287954929193612
  0.4646493250810049  0.9296612295874427  0.5430580280615468
  0.5317316746788020  0.8632616173333342  0.3731859503880554
  0.5321922555081392  0.8631144717672146  0.7129878588370766
  0.5337753056299844  0.6691805206469004  0.7142617918394915
  0.5317107436665659  0.2633976715447057  0.2869333971599735
  0.4648751419725649  0.3298573238728472  0.4569614454706259
  0.5298553424956570  0.2586703926184540  0.7117310194115378
  0.1317585977688892  0.2607466965589066  0.7133065509779214
  0.0648230159202382  0.3299665567598214  0.4569313334946104
  0.1317132069586050  0.2631369018620824  0.2870105394963212
  0.1329798937550091  0.2627659985243969  0.6272940852177743
  0.0646953310465337  0.5298955835084931  0.5430991114256765
  0.1320143565972301  0.4633953532765745  0.3731043101601823
  0.1305012652823721  0.4613603654193431  0.7135992038165520
  0.0647429909839014  0.5299591528749850  0.4569213518110142
  0.1318325949921125  0.4632767044050913  0.2869636802552895
  0.1321273230147460  0.4617250590133765  0.6274915414923514
  0.0647349976546521  0.7298985036312250  0.5431126658540577
  0.3283416580535048  0.2607815675203906  0.6253961978450693
  0.2648557044199170  0.5299201526481022  0.5431419982932881
  0.3317526867422733  0.4634877991036683  0.3731214900684395
  0.3277952867425186  0.4600591248010320  0.7144960761714652
  0.5317627996668254  0.2634883605041263  0.3731160434784741
  0.5317099106290987  0.8634847119941472  0.2870247140058108
  0.4649996159304321  0.3298804959008733  0.5431945198992214
  0.5318242217853161  0.0634410039644695  0.2870347778339663
  0.5319192830870616  0.0595785338351673  0.6260341935482687
  0.9308394333791885  0.8608256382506162  0.6268452150426360
  0.5327907739836482  0.4822962461986973  0.7308648914445870
  0.6647943764843873  0.3299645107082011  0.4568994060014501
  0.8647412067785761  0.7302825479397400  0.4570367827413611
  0.7326297562878540  0.2612670945667430  0.6264126823979815
  0.7318782086220597  0.2634445196269706  0.2869613770256424
  0.9318593832313115  0.6632772269304981  0.2870034093187940
  0.9300638014070728  0.6604142754184908  0.6272241534041808
  0.8647948269742276  0.3299081245859433  0.4568834548897456
  0.8648088190998713  0.1297739539688517  0.4569280175560087
  0.7304662899154112  0.2603717054875327  0.7126026545323852
  0.7318296191619609  0.2635131404864041  0.3731532816727329
  0.6649883983986072  0.3300488128812147  0.5430907259935724
  0.6648886896187253  0.9298279735236605  0.4570138507221645
  0.4649732783960129  0.1299216449149185  0.4568744911451366
  0.1317137498446403  0.2631562501155298  0.3731839185227749
  0.5313092625919817  0.0608873692484636  0.7123906475759915
  0.4647216578518760  0.1296572402390556  0.5430160456816755
  0.2648710584361369  0.5299747511835989  0.4569012223129336
  0.3318885223336622  0.4633604828548933  0.2869401058945434
  0.3358354637287243  0.4640437399673250  0.6291906635154154
  0.2646586521196107  0.7297347492175887  0.5431023802807097
  0.3318572614485497  0.6633452969055661  0.3730902963556451
  0.3314045091430526  0.6627775087650269  0.7135725761470018
  0.2646351923774226  0.7297059173740337  0.4569144783704660
  0.3317878362589860  0.6633844041531102  0.2869305439198355
  0.3314563494947804  0.6609031977709883  0.6272607558003488
  0.2647006098892511  0.9298983085832053  0.5430643441022548
  0.3316179694150789  0.8632051503241762  0.3731685034100459
  0.3315907794170483  0.8620323441708445  0.7126788658593947
  0.2646479115069448  0.9298379355737154  0.4568837480482313
  0.3319048300371374  0.8634629511426359  0.2870047198515548
  0.3310965864347899  0.8603703082661515  0.6265561389418564
  0.5318986076390850  0.0636937658887753  0.3731980400150208
  0.0647355214621136  0.3300498153777994  0.5431307957248175
  0.1303736672633068  0.0607991703990333  0.6264050635214975
  0.1316410204066809  0.0631148121265032  0.2869963864423163
  0.6646806696564092  0.9298821036905405  0.5431910762483623
  0.9317471536786628  0.4631243491614989  0.3731953035293880
  0.9308386089927381  0.4606882718865984  0.7133189557568700
  0.8648039345276580  0.5299990169324840  0.4569794022114534
  0.7296381300958384  0.6590886280938388  0.6285740689328141
  0.7317348971309580  0.6633354395931446  0.2869456452805661
  0.6648963737291425  0.7300261846030872  0.4570492104370423
  0.7344402370957125  0.6654045441423724  0.7141364717862093
  0.7316900612259920  0.6634079612991476  0.3731150911105901
  0.6646913375902097  0.7298513545007862  0.5432615499762160
  0.9311807106891141  0.2610251880322174  0.7131902160550804
  0.9307428736639948  0.4616048951591477  0.6271529568217856
  0.9323978796564445  0.2620527523003540  0.6270253065663469
  0.8647687007759021  0.3299191016785226  0.5430743895422686
  0.9318293173140131  0.2632611007943035  0.2869871032780119
  0.8646652481344558  0.5297359206245843  0.5431013842874023
  0.8647627878197839  0.7299769828774078  0.5432351456838170
  0.7315987546280829  0.8609150997783495  0.6270020033322045
  0.7331984551428807  0.8640958269273751  0.7134545463788482
  0.9320482734772053  0.0619223661689736  0.6267800996897775
  0.9314343577734436  0.6612011514486235  0.7134314508517471
  0.7323484773951813  0.0613798995999489  0.6265575005824200
  0.7318266461295486  0.0634512484812468  0.2869792884873956
  0.6648540294282229  0.1298258816163595  0.4569025955832717
  0.7317195746168893  0.0617812942533175  0.7127842203502566
  0.7318551253071448  0.0634060917625477  0.3731395031219488
  0.9318361885529294  0.8633430253970648  0.3731348029999575
  0.9326012788640475  0.8627512392386079  0.7131170146311651
  0.8648032583427027  0.9301415866219289  0.4570561561466106
  0.6647520003230981  0.1298910555891480  0.5430750197649261
  0.9317553676656712  0.2631648163730034  0.3730886443824034
  0.9318841617555217  0.6633612061741857  0.3731322320715835
  0.9322974030095865  0.0621022490619553  0.7129641007350964
  0.7316827658329998  0.8634632664674172  0.2869568703863158
  0.7317089259000151  0.8632892878252429  0.3731132479970022
  0.8648338026958881  0.9301921855130125  0.5432556856561064
  0.7290346525119827  0.4636940074817469  0.6281577825878828
  0.6648033628938650  0.5300670719573949  0.4569758426511485
  0.3316505395877735  0.0634252109398609  0.2869646794958093
  0.3302909412987368  0.0598742062159119  0.6259882471441122
  0.2650349238906133  0.3301694418022607  0.5431039485782251
  0.3316733561020059  0.2632790647409124  0.3730994269915259
  0.3365838590896825  0.2622659093266989  0.7116759841941329
  0.2648968864557026  0.3299357212349867  0.4569755182279744
  0.3316558724889761  0.2633235673367105  0.2869837865913153
  0.3312411209622004  0.0610556305241565  0.7119336802220358
  0.0645792136693278  0.7299225964753180  0.4569589683354713
  0.1313016242632057  0.6617746358632118  0.7131553231685851
  0.1318579809410574  0.6632554339860826  0.3731533261040090
  0.0650335430962190  0.1301251773159476  0.5431960598720208
  0.1317605003359880  0.0629982608298724  0.3731290197560074
  0.1326611849569309  0.0617838515118443  0.7126643301941148
  0.0648199435068812  0.1300294763523507  0.4570009410133135
  0.2648752208717157  0.1299137642865617  0.4568947412690275
  0.7318159426511330  0.4633852245775680  0.2870116367716509
  0.3317327577009578  0.0634481807754730  0.3731075549518224
  0.2649029975356084  0.1297478941269819  0.5431128125972362
  0.7308582251217576  0.4585219846459042  0.7137006925434292
  0.7316597489776645  0.4632194771628195  0.3730979588955647
  0.8648026331383029  0.1299950256625554  0.5431633253047491
  0.9315486245757735  0.0630917641512352  0.3731664069585191
  0.6646360850519134  0.5297371876264055  0.5431398269007160
  0.5318452250915406  0.8607981395180820  0.6267005751424377
  0.5316695767330837  0.4632060145363135  0.3731790738233978
  0.4647375514034669  0.9296547549337995  0.4569413952497932
  0.1309402702013373  0.6609377987333800  0.6270031279199473
  0.0649076742482760  0.9301616185190921  0.5431107956318206
  0.1318719988026122  0.8631922903571633  0.3730992710809666
  0.1317244507014528  0.8616326360831209  0.7127463596892306
  0.0646649996039802  0.9300132161753215  0.4569704576639741
  0.1318785033560126  0.8630991528059546  0.2869339418861891
  0.1303832297039145  0.8602441946289281  0.6265859251671486
  0.1317646603584685  0.6630897426328956  0.2869541748746796
  0.9318271170322089  0.4632390252021052  0.2870187948332242
 
  0.00000000E+00  0.00000000E+00  0.00000000E+00
  0.00000000E+00  0.00000000E+00  0.00000000E+00
  0.00000000E+00  0.00000000E+00  0.00000000E+00
  0.00000000E+00  0.00000000E+00  0.00000000E+00
  0.00000000E+00  0.00000000E+00  0.00000000E+00
  0.00000000E+00  0.00000000E+00  0.00000000E+00
  0.00000000E+00  0.00000000E+00  0.00000000E+00
  0.00000000E+00  0.00000000E+00  0.00000000E+00
  0.00000000E+00  0.00000000E+00  0.00000000E+00
  0.00000000E+00  0.00000000E+00  0.00000000E+00
  0.00000000E+00  0.00000000E+00  0.00000000E+00
  0.00000000E+00  0.00000000E+00  0.00000000E+00
  0.00000000E+00  0.00000000E+00  0.00000000E+00
  0.00000000E+00  0.00000000E+00  0.00000000E+00
  0.00000000E+00  0.00000000E+00  0.00000000E+00
  0.00000000E+00  0.00000000E+00  0.00000000E+00
  0.00000000E+00  0.00000000E+00  0.00000000E+00
  0.00000000E+00  0.00000000E+00  0.00000000E+00
  0.00000000E+00  0.00000000E+00  0.00000000E+00
  0.00000000E+00  0.00000000E+00  0.00000000E+00
  0.00000000E+00  0.00000000E+00  0.00000000E+00
  0.00000000E+00  0.00000000E+00  0.00000000E+00
  0.00000000E+00  0.00000000E+00  0.00000000E+00
  0.00000000E+00  0.00000000E+00  0.00000000E+00
  0.00000000E+00  0.00000000E+00  0.00000000E+00
  0.00000000E+00  0.00000000E+00  0.00000000E+00
  0.00000000E+00  0.00000000E+00  0.00000000E+00
  0.00000000E+00  0.00000000E+00  0.00000000E+00
  0.00000000E+00  0.00000000E+00  0.00000000E+00
  0.00000000E+00  0.00000000E+00  0.00000000E+00
  0.00000000E+00  0.00000000E+00  0.00000000E+00
  0.00000000E+00  0.00000000E+00  0.00000000E+00
  0.00000000E+00  0.00000000E+00  0.00000000E+00
  0.00000000E+00  0.00000000E+00  0.00000000E+00
  0.00000000E+00  0.00000000E+00  0.00000000E+00
  0.00000000E+00  0.00000000E+00  0.00000000E+00
  0.00000000E+00  0.00000000E+00  0.00000000E+00
  0.00000000E+00  0.00000000E+00  0.00000000E+00
  0.00000000E+00  0.00000000E+00  0.00000000E+00
  0.00000000E+00  0.00000000E+00  0.00000000E+00
  0.00000000E+00  0.00000000E+00  0.00000000E+00
  0.00000000E+00  0.00000000E+00  0.00000000E+00
  0.00000000E+00  0.00000000E+00  0.00000000E+00
  0.00000000E+00  0.00000000E+00  0.00000000E+00
  0.00000000E+00  0.00000000E+00  0.00000000E+00
  0.00000000E+00  0.00000000E+00  0.00000000E+00
  0.00000000E+00  0.00000000E+00  0.00000000E+00
  0.00000000E+00  0.00000000E+00  0.00000000E+00
  0.00000000E+00  0.00000000E+00  0.00000000E+00
  0.00000000E+00  0.00000000E+00  0.00000000E+00
  0.00000000E+00  0.00000000E+00  0.00000000E+00
  0.00000000E+00  0.00000000E+00  0.00000000E+00
  0.00000000E+00  0.00000000E+00  0.00000000E+00
  0.00000000E+00  0.00000000E+00  0.00000000E+00
  0.00000000E+00  0.00000000E+00  0.00000000E+00
  0.00000000E+00  0.00000000E+00  0.00000000E+00
  0.00000000E+00  0.00000000E+00  0.00000000E+00
  0.00000000E+00  0.00000000E+00  0.00000000E+00
  0.00000000E+00  0.00000000E+00  0.00000000E+00
  0.00000000E+00  0.00000000E+00  0.00000000E+00
  0.00000000E+00  0.00000000E+00  0.00000000E+00
  0.00000000E+00  0.00000000E+00  0.00000000E+00
  0.00000000E+00  0.00000000E+00  0.00000000E+00
  0.00000000E+00  0.00000000E+00  0.00000000E+00
  0.00000000E+00  0.00000000E+00  0.00000000E+00
  0.00000000E+00  0.00000000E+00  0.00000000E+00
  0.00000000E+00  0.00000000E+00  0.00000000E+00
  0.00000000E+00  0.00000000E+00  0.00000000E+00
  0.00000000E+00  0.00000000E+00  0.00000000E+00
  0.00000000E+00  0.00000000E+00  0.00000000E+00
  0.00000000E+00  0.00000000E+00  0.00000000E+00
  0.00000000E+00  0.00000000E+00  0.00000000E+00
  0.00000000E+00  0.00000000E+00  0.00000000E+00
  0.00000000E+00  0.00000000E+00  0.00000000E+00
  0.00000000E+00  0.00000000E+00  0.00000000E+00
  0.00000000E+00  0.00000000E+00  0.00000000E+00
  0.00000000E+00  0.00000000E+00  0.00000000E+00
  0.00000000E+00  0.00000000E+00  0.00000000E+00
  0.00000000E+00  0.00000000E+00  0.00000000E+00
  0.00000000E+00  0.00000000E+00  0.00000000E+00
  0.00000000E+00  0.00000000E+00  0.00000000E+00
  0.00000000E+00  0.00000000E+00  0.00000000E+00
  0.00000000E+00  0.00000000E+00  0.00000000E+00
  0.00000000E+00  0.00000000E+00  0.00000000E+00
  0.00000000E+00  0.00000000E+00  0.00000000E+00
  0.00000000E+00  0.00000000E+00  0.00000000E+00
  0.00000000E+00  0.00000000E+00  0.00000000E+00
  0.00000000E+00  0.00000000E+00  0.00000000E+00
  0.00000000E+00  0.00000000E+00  0.00000000E+00
  0.00000000E+00  0.00000000E+00  0.00000000E+00
  0.00000000E+00  0.00000000E+00  0.00000000E+00
  0.00000000E+00  0.00000000E+00  0.00000000E+00
  0.00000000E+00  0.00000000E+00  0.00000000E+00
  0.00000000E+00  0.00000000E+00  0.00000000E+00
  0.00000000E+00  0.00000000E+00  0.00000000E+00
  0.00000000E+00  0.00000000E+00  0.00000000E+00
  0.00000000E+00  0.00000000E+00  0.00000000E+00
  0.00000000E+00  0.00000000E+00  0.00000000E+00
  0.00000000E+00  0.00000000E+00  0.00000000E+00
  0.00000000E+00  0.00000000E+00  0.00000000E+00
  0.00000000E+00  0.00000000E+00  0.00000000E+00
  0.00000000E+00  0.00000000E+00  0.00000000E+00
  0.00000000E+00  0.00000000E+00  0.00000000E+00
  0.00000000E+00  0.00000000E+00  0.00000000E+00
  0.00000000E+00  0.00000000E+00  0.00000000E+00
  0.00000000E+00  0.00000000E+00  0.00000000E+00
  0.00000000E+00  0.00000000E+00  0.00000000E+00
  0.00000000E+00  0.00000000E+00  0.00000000E+00
  0.00000000E+00  0.00000000E+00  0.00000000E+00
  0.00000000E+00  0.00000000E+00  0.00000000E+00
  0.00000000E+00  0.00000000E+00  0.00000000E+00
  0.00000000E+00  0.00000000E+00  0.00000000E+00
  0.00000000E+00  0.00000000E+00  0.00000000E+00
  0.00000000E+00  0.00000000E+00  0.00000000E+00
  0.00000000E+00  0.00000000E+00  0.00000000E+00
  0.00000000E+00  0.00000000E+00  0.00000000E+00
  0.00000000E+00  0.00000000E+00  0.00000000E+00
  0.00000000E+00  0.00000000E+00  0.00000000E+00
  0.00000000E+00  0.00000000E+00  0.00000000E+00
  0.00000000E+00  0.00000000E+00  0.00000000E+00
  0.00000000E+00  0.00000000E+00  0.00000000E+00
  0.00000000E+00  0.00000000E+00  0.00000000E+00
  0.00000000E+00  0.00000000E+00  0.00000000E+00
  0.00000000E+00  0.00000000E+00  0.00000000E+00
  0.00000000E+00  0.00000000E+00  0.00000000E+00
  0.00000000E+00  0.00000000E+00  0.00000000E+00
  0.00000000E+00  0.00000000E+00  0.00000000E+00
  0.00000000E+00  0.00000000E+00  0.00000000E+00
  0.00000000E+00  0.00000000E+00  0.00000000E+00
  0.00000000E+00  0.00000000E+00  0.00000000E+00
  0.00000000E+00  0.00000000E+00  0.00000000E+00
  0.00000000E+00  0.00000000E+00  0.00000000E+00
  0.00000000E+00  0.00000000E+00  0.00000000E+00
  0.00000000E+00  0.00000000E+00  0.00000000E+00
  0.00000000E+00  0.00000000E+00  0.00000000E+00
  0.00000000E+00  0.00000000E+00  0.00000000E+00
  0.00000000E+00  0.00000000E+00  0.00000000E+00
  0.00000000E+00  0.00000000E+00  0.00000000E+00
  0.00000000E+00  0.00000000E+00  0.00000000E+00
  0.00000000E+00  0.00000000E+00  0.00000000E+00
  0.00000000E+00  0.00000000E+00  0.00000000E+00
  0.00000000E+00  0.00000000E+00  0.00000000E+00
  0.00000000E+00  0.00000000E+00  0.00000000E+00
  0.00000000E+00  0.00000000E+00  0.00000000E+00
  0.00000000E+00  0.00000000E+00  0.00000000E+00
  0.00000000E+00  0.00000000E+00  0.00000000E+00
  0.00000000E+00  0.00000000E+00  0.00000000E+00
  0.00000000E+00  0.00000000E+00  0.00000000E+00
  0.00000000E+00  0.00000000E+00  0.00000000E+00
  0.00000000E+00  0.00000000E+00  0.00000000E+00
  0.00000000E+00  0.00000000E+00  0.00000000E+00
  0.00000000E+00  0.00000000E+00  0.00000000E+00
  0.00000000E+00  0.00000000E+00  0.00000000E+00
  0.00000000E+00  0.00000000E+00  0.00000000E+00
  0.00000000E+00  0.00000000E+00  0.00000000E+00
  0.00000000E+00  0.00000000E+00  0.00000000E+00
  0.00000000E+00  0.00000000E+00  0.00000000E+00
  0.00000000E+00  0.00000000E+00  0.00000000E+00
  0.00000000E+00  0.00000000E+00  0.00000000E+00
  0.00000000E+00  0.00000000E+00  0.00000000E+00
  0.00000000E+00  0.00000000E+00  0.00000000E+00
  0.00000000E+00  0.00000000E+00  0.00000000E+00
  0.00000000E+00  0.00000000E+00  0.00000000E+00
  0.00000000E+00  0.00000000E+00  0.00000000E+00
  0.00000000E+00  0.00000000E+00  0.00000000E+00
  0.00000000E+00  0.00000000E+00  0.00000000E+00
  0.00000000E+00  0.00000000E+00  0.00000000E+00
  0.00000000E+00  0.00000000E+00  0.00000000E+00
  0.00000000E+00  0.00000000E+00  0.00000000E+00
  0.00000000E+00  0.00000000E+00  0.00000000E+00
  0.00000000E+00  0.00000000E+00  0.00000000E+00
  0.00000000E+00  0.00000000E+00  0.00000000E+00
  0.00000000E+00  0.00000000E+00  0.00000000E+00
  0.00000000E+00  0.00000000E+00  0.00000000E+00
  0.00000000E+00  0.00000000E+00  0.00000000E+00
  0.00000000E+00  0.00000000E+00  0.00000000E+00
  0.00000000E+00  0.00000000E+00  0.00000000E+00
  0.00000000E+00  0.00000000E+00  0.00000000E+00
  0.00000000E+00  0.00000000E+00  0.00000000E+00
  0.00000000E+00  0.00000000E+00  0.00000000E+00
  0.00000000E+00  0.00000000E+00  0.00000000E+00
  0.00000000E+00  0.00000000E+00  0.00000000E+00
  0.00000000E+00  0.00000000E+00  0.00000000E+00
  0.00000000E+00  0.00000000E+00  0.00000000E+00
  0.00000000E+00  0.00000000E+00  0.00000000E+00
  0.00000000E+00  0.00000000E+00  0.00000000E+00
  0.00000000E+00  0.00000000E+00  0.00000000E+00
  0.00000000E+00  0.00000000E+00  0.00000000E+00
  0.00000000E+00  0.00000000E+00  0.00000000E+00
  0.00000000E+00  0.00000000E+00  0.00000000E+00
  0.00000000E+00  0.00000000E+00  0.00000000E+00
  0.00000000E+00  0.00000000E+00  0.00000000E+00
  0.00000000E+00  0.00000000E+00  0.00000000E+00
  0.00000000E+00  0.00000000E+00  0.00000000E+00
  0.00000000E+00  0.00000000E+00  0.00000000E+00
  0.00000000E+00  0.00000000E+00  0.00000000E+00
  0.00000000E+00  0.00000000E+00  0.00000000E+00
  0.00000000E+00  0.00000000E+00  0.00000000E+00
  0.00000000E+00  0.00000000E+00  0.00000000E+00
  0.00000000E+00  0.00000000E+00  0.00000000E+00
  0.00000000E+00  0.00000000E+00  0.00000000E+00
  0.00000000E+00  0.00000000E+00  0.00000000E+00
  0.00000000E+00  0.00000000E+00  0.00000000E+00
  0.00000000E+00  0.00000000E+00  0.00000000E+00
  0.00000000E+00  0.00000000E+00  0.00000000E+00
  0.00000000E+00  0.00000000E+00  0.00000000E+00
  0.00000000E+00  0.00000000E+00  0.00000000E+00
  0.00000000E+00  0.00000000E+00  0.00000000E+00
  0.00000000E+00  0.00000000E+00  0.00000000E+00
  0.00000000E+00  0.00000000E+00  0.00000000E+00
  0.00000000E+00  0.00000000E+00  0.00000000E+00
  0.00000000E+00  0.00000000E+00  0.00000000E+00
  0.00000000E+00  0.00000000E+00  0.00000000E+00
  0.00000000E+00  0.00000000E+00  0.00000000E+00
  0.00000000E+00  0.00000000E+00  0.00000000E+00
  0.00000000E+00  0.00000000E+00  0.00000000E+00
  0.00000000E+00  0.00000000E+00  0.00000000E+00
  0.00000000E+00  0.00000000E+00  0.00000000E+00
  0.00000000E+00  0.00000000E+00  0.00000000E+00
  0.00000000E+00  0.00000000E+00  0.00000000E+00
  0.00000000E+00  0.00000000E+00  0.00000000E+00
  0.00000000E+00  0.00000000E+00  0.00000000E+00
  0.00000000E+00  0.00000000E+00  0.00000000E+00
  0.00000000E+00  0.00000000E+00  0.00000000E+00
  0.00000000E+00  0.00000000E+00  0.00000000E+00
  0.00000000E+00  0.00000000E+00  0.00000000E+00
  0.00000000E+00  0.00000000E+00  0.00000000E+00
  0.00000000E+00  0.00000000E+00  0.00000000E+00
  0.00000000E+00  0.00000000E+00  0.00000000E+00
  0.00000000E+00  0.00000000E+00  0.00000000E+00
  0.00000000E+00  0.00000000E+00  0.00000000E+00
  0.00000000E+00  0.00000000E+00  0.00000000E+00
  0.00000000E+00  0.00000000E+00  0.00000000E+00
  0.00000000E+00  0.00000000E+00  0.00000000E+00
  0.00000000E+00  0.00000000E+00  0.00000000E+00
  0.00000000E+00  0.00000000E+00  0.00000000E+00
  0.00000000E+00  0.00000000E+00  0.00000000E+00
  0.00000000E+00  0.00000000E+00  0.00000000E+00
  0.00000000E+00  0.00000000E+00  0.00000000E+00
