 C  H  N                                
   1.00000000000000     
     7.9113985352808234  -13.7029442220323787    0.0000000000000000
     7.9113985352808278   13.7029442220323787    0.0000000000000000
     0.0000000000000000    0.0000000000000000   36.4173130480389986
   C    H    N 
     6     7     1
Direct
  0.5001578828748521  0.5006318232229319  0.5514721957270652
  0.5439624941427468  0.5882169778270168  0.5318080991567058
  0.4564543343305019  0.4116781282648674  0.4938598460751464
  0.5442021421478103  0.5881613068669793  0.4935426934370426
  0.5002257797103482  0.4996737106228863  0.4739924436225138
  0.4565904395337199  0.4125658351739574  0.5321259409718095
  0.5784764283215367  0.6572077903811291  0.4784626969552761
  0.4218383780211354  0.3422718116467252  0.4790221875788205
  0.4221143825684095  0.3433025948300568  0.5469914525163233
  0.5786043876139360  0.6578117847264195  0.5464371774723986
  0.5000008461782670  0.5009706191485108  0.5814280277383119
  0.5470102052990242  0.5609388901074581  0.4230025960494785
  0.4862994623992094  0.4376274227119197  0.4231915632589534
  0.4960137522360597  0.4992042309708324  0.4357120625847983
 
  0.00000000E+00  0.00000000E+00  0.00000000E+00
  0.00000000E+00  0.00000000E+00  0.00000000E+00
  0.00000000E+00  0.00000000E+00  0.00000000E+00
  0.00000000E+00  0.00000000E+00  0.00000000E+00
  0.00000000E+00  0.00000000E+00  0.00000000E+00
  0.00000000E+00  0.00000000E+00  0.00000000E+00
  0.00000000E+00  0.00000000E+00  0.00000000E+00
  0.00000000E+00  0.00000000E+00  0.00000000E+00
  0.00000000E+00  0.00000000E+00  0.00000000E+00
  0.00000000E+00  0.00000000E+00  0.00000000E+00
  0.00000000E+00  0.00000000E+00  0.00000000E+00
  0.00000000E+00  0.00000000E+00  0.00000000E+00
  0.00000000E+00  0.00000000E+00  0.00000000E+00
  0.00000000E+00  0.00000000E+00  0.00000000E+00
