Mo S  H  C  H 
 1.0000000000000000
     7.9113990000000003  -13.7029440000000005    0.0000000000000000
     7.9113990000000003   13.7029440000000005    0.0000000000000000
     0.0000000000000000    0.0000000000000000   36.4173130000000000
 Mo  S   C   H  
  75 150   7   8
Selective dynamics
Cartesian
 12.6435232769740029 -3.6621648143932473 18.1996049768537773   F   F   F
 11.0500046226685527 -4.5790349637580707 24.4224690542177036   F   F   F
  4.7374454839414151  6.3924643478025898 12.0101060774875101   F   F   F
  4.7209306758708340  6.3812368406361832 24.4010655068482336   F   F   F
 12.6498154499406379 -1.8449210788569448 24.4004052609635131   F   F   F
  6.3145790771198822  7.3010958761461842 18.1975634222870468   F   F   F
  9.4853100430238406 -7.3104418320719580 12.0119757423368867   F   F   F
  6.3016148258065678  9.1200841334831733 24.3846008754678891   F   F   F
  3.1160181829536526 -1.8353151780835006 24.3291977605083396   F   F   F
  7.8974762826978493 -11.8839449173372316 18.2001446814325867   F   F   F
  9.4681588420177167 -7.3216200086400685 24.3944797999653602   F   F   F
  4.7349910515156184  4.5600493978166492 18.2000347011472812   F   F   F
  6.3207210917335512  9.1332103205702673 12.0091930954506143   F   F   F
  3.1394262720868173  3.6418118316700618 24.3998313241107567   F   F   F
  1.5732755994561434  0.9108194774121039 12.0105667564967789   F   F   F
  3.1521604599172326  1.8201805504944488 18.1999960987954097   F   F   F
 14.2311708029675277  0.9127515925160939 12.0087655561958133   F   F   F
 14.2213098770259396  0.9049072051938439 24.3848630801214483   F   F   F
  1.5545196502768603  0.9006597036422115 24.3719196387350543   F   F   F
 11.0607119100751472 -0.9222922672761524 18.2004199963188746   F   F   F
 14.2249453230944169 -0.9214863971394318 18.1988875557878345   F   F   F
 11.0673073269655262 -4.5685135692959893 12.0108956048332089   F   F   F
 12.6497655290129760 -1.8286492439452944 12.0106290301019865   F   F   F
  3.1574242301278739 -1.8286196455862402 12.0097124063340104   F   F   F
  3.1493273088213383 -3.6622677235027310 18.1961282159817408   F   F   F
  7.8968807916950929 10.0412084988422574 18.1979334221872087   F   F   F
 11.0620222750915591 -6.4028221291133072 18.1985488747768578   F   F   F
  7.8831069669220746 11.8633203422639877 24.3637654381811295   F   F   F
  7.9031053222003571 11.8742828344934139 12.0071205861676056   F   F   F
  3.1548718545825047  3.6522148326960222 12.0116454373078163   F   F   F
  6.3152710080764463 -3.6625632960048273 18.1992367978194167   F   F   F
  1.5677918923532628 -0.9203413791388868 18.1979840422523260   F   F   F
  6.2416756144488978 -1.8758538305837076 24.3117127160176594   F   F   F
  4.7381731744213820  0.9120686377871958 12.0100656542700985   F   F   F
  4.7238322605681189  0.8915308023494426 24.3964405080972675   F   F   F
  7.8886606899061098 -10.0597743436089893 24.3817577758419546   F   F   F
  7.9030270784642376 -10.0501826938973160 12.0115817070102260   F   F   F
  6.3179650767778810  1.8199740471283217 18.1989425459303540   F   F   F
  6.3197219611538067  3.6530594821641609 12.0102728687808753   F   F   F
  6.3052888003881593  3.6397540605695169 24.4288293379330881   F   F   F
  7.8989718535647713  4.5596298136714113 18.1999025063010258   F   F   F
  4.7338255442149659 -0.9206354443171161 18.1990397801560846   F   F   F
 11.0663227533599677  0.9119644954127463 12.0089119537942839   F   F   F
  7.8824598935978978  6.3814506065625505 24.3892495454721931   F   F   F
 12.6382897283075124  3.6450586072214315 24.3850881391157799   F   F   F
 11.0714146879843884  0.9116002711612733 24.4360050052867273   F   F   F
 12.6433569002530390  1.8179413524153252 18.2018468266420186   F   F   F
  9.4796350382931074  7.3006773882364611 18.1968132256392821   F   F   F
  9.4852182707954356  9.1350348675638173 12.0088609695560020   F   F   F
  9.4601241043073525  9.1192266032476805 24.3492028830585667   F   F   F
  6.3206919777852386 -1.8290503291161586 12.0100569141147702   F   F   F
  7.9022485968025906  6.3940201800643628 12.0096144437619561   F   F   F
  9.4809471438172732 -9.1431175490822767 18.1988915616920721   F   F   F
 12.6487951168116730  3.6529262895484624 12.0109502308028286   F   F   F
  4.7339232499925492 -6.4030417873055949 18.1963947907129615   F   F   F
  9.4750313161010649 -1.8295521309254803 24.5140662440483794   F   F   F
  6.3154581126627622 -9.1440394831546410 18.2000041106044179   F   F   F
  9.4853569576198584 -1.8280916711539517 12.0090237549451277   F   F   F
  9.4797503864905153 -3.6618973329264346 18.2005660297439213   F   F   F
  7.9012498617928300  0.9118636417449356 12.0095976917978842   F   F   F
  7.9008750988222216  0.9016235687231808 24.5192247564349515   F   F   F
  7.8758950147077114 -4.5763184921394684 24.3871147625842362   F   F   F
  7.9029928221065431 -4.5699375792364814 12.0105929769622399   F   F   F
  9.4797589308014683  1.8168137371536395 18.2003999667966170   F   F   F
  7.8969649689804466 -0.9217093440383574 18.1984545539361449   F   F   F
  9.4723705543893661  3.6580170702739134 24.4056712044232675   F   F   F
  7.8980595110320992 -6.4035579772060407 18.1981202430028297   F   F   F
 11.0627943485199332  4.5581719574591668 18.1998832051250865   F   F   F
 11.0656427686159251  6.3935922371231779 12.0112321008054810   F   F   F
 11.0471835760131754  6.3780092492063467 24.3648641485144211   F   F   F
  4.7384902632932864 -4.5705143361494525 12.0100780361565072   F   F   F
  6.3012272463695309 -7.3242416558861345 24.3686377104873841   F   F   F
  6.3193903944217160 -7.3108738858963891 12.0112237248233171   F   F   F
  9.4844852005640412  3.6519761274115567 12.0111279472902233   F   F   F
  4.7093239415119923 -4.6046250746486601 24.3274253298846936   F   F   F
  7.9135138751807288 -0.9062954504505525 22.9559620683641725   F   F   F
  4.6676672612173435 -0.8766848957904089 22.7401443313710203   F   F   F
  6.3178706146738186  3.6460184984486044 19.7702370723830860   F   F   F
  6.3190690333943351  1.8269458309766009 13.5794307914801049   F   F   F
  6.2659409036637523  1.8171310973366477 26.0190859950921158   F   F   F
  6.2633394774445152 -3.6965761954838627 25.9110791640233558   F   F   F
  7.8965309496313161  0.9033816564383826 19.7696878993031468   F   F   F
  6.3205680061628824 -3.6563931343804725 10.4428451326225975   F   F   F
  6.3096942629213286 -3.7395009416226612 22.7367323933160534   F   F   F
 14.2307886032818072 -0.9143829279993226 10.4415067963696018   F   F   F
  7.8981061091721863  0.9051830454566029 16.6285227633358055   F   F   F
  7.9017783432460780 -0.9131506222454806 10.4410592275930618   F   F   F
  6.3152375428586627  9.1279815511987099 19.7674700849414045   F   F   F
  6.3137545511160678 -1.8351997992950169 16.6289204403938093   F   F   F
  4.7320044192791295  4.5445073817024575 22.8408352884311334   F   F   F
  3.1564769192116513  1.8245345239209099 13.5803554270570874   F   F   F
  4.7330713505482365  6.3859813479667284 16.6283891117971656   F   F   F
  1.5692286815256964  0.9059164270195035 19.7683375453371646   F   F   F
  1.5735887326285580 -0.9185956240733323 13.5789817660109247   F   F   F
  1.5607831839791610 -0.9353614501161640 25.9261996323811807   F   F   F
  1.5685725892065876  0.9069853936808873 16.6297791606342393   F   F   F
  1.5751971991592195 -0.9158252998848326 10.4404252021735431   F   F   F
  1.5294768287683169 -0.9127392598665434 22.7806669680656100   F   F   F
  4.7356904191872404  4.5647009991868792 10.4428214613690002   F   F   F
  3.1515923423550309  3.6484833840153863 19.7695160095857965   F   F   F
  3.1531730398752646  3.6471108971443145 16.6312187370172104   F   F   F
  3.1560329314997992  1.8255962280220519 10.4440731244168692   F   F   F
  3.1539717747182854  1.8249051885561098 22.8241222909760211   F   F   F
  4.7331200847661172  6.3871452760300986 19.7678047600478806   F   F   F
  4.7377429525438064  4.5657355714588963 13.5800003582554574   F   F   F
  4.7119953044982728  4.5612599158895781 25.9774766657774840   F   F   F
  3.1304714386727923  1.8017436504307143 25.9556889157559034   F   F   F
  9.4800072696161077  3.6433058636544429 19.7700939523430570   F   F   F
  7.9023781064042566  4.5664926591148340 10.4431149849117446   F   F   F
  9.5124179770133885  1.8727061273173808 26.0117242352689146   F   F   F
  6.3192941918098979  7.3059970081267567 13.5788761558030231   F   F   F
 14.2004696697801176 -0.9213444346396276 22.8109534264221345   F   F   F
  4.7161510041650327 -6.4418401659178137 22.7803089858786976   F   F   F
  4.7326094830746825 -4.5749235324403230 16.6278770843762018   F   F   F
  4.7141529012335948 -6.4006049927740971 25.9238059223975874   F   F   F
  4.7368127302493752 -6.3967577542166216 13.5805666474726259   F   F   F
  4.7303404938414433 -4.5756900751277225 19.7647701053557583   F   F   F
  9.4521942717476364  7.2781359083270587 22.7968129479572319   F   F   F
  9.4848688243015875  7.3089140908454686 10.4410410189363496   F   F   F
  9.4787410502061160  9.1283108329431109 16.6276509328626432   F   F   F
  9.4751775187545402  7.3109643253267746 25.9335967169975490   F   F   F
  9.4823954045182504  7.3108823817215942 13.5792931340369609   F   F   F
  9.4791568733376135  9.1268824380604698 19.7671226637753641   F   F   F
  7.8729506293418376  4.5410360148988449 22.8363770809735342   F   F   F
  7.8971675007948523  6.3866785537574966 16.6286108932333150   F   F   F
  7.8907966885221166  4.5757283063414329 25.9800295194188600   F   F   F
  7.9016187703282554  4.5668700381926621 13.5807731336373436   F   F   F
  9.4812215111345832  3.6436859833209088 16.6317347703424261   F   F   F
  9.4836295036482294  1.8250546876752496 10.4411586468574971   F   F   F
  9.4485080344975358  1.7903704809696097 22.8913490149471990   F   F   F
 11.0638796342347785  6.3881061264634296 19.7649088553181222   F   F   F
 11.0674762353341549  4.5658438247164952 13.5819177297849283   F   F   F
 11.0674040042613235  4.5792670916294567 25.9541411799534281   F   F   F
  9.4835699308137773  1.8225515708946594 13.5793918249550778   F   F   F
  6.3206949841167708 -3.6578148148204859 13.5797188524259642   F   F   F
  6.3154528120254438 -1.8353291550864674 19.7691267085099618   F   F   F
  4.7370493601934811 -6.3977930116357982 10.4433258411541239   F   F   F
  6.3178465640208925  3.6476754584370905 16.6300038554554099   F   F   F
  6.3187562957918475  1.8264471808444647 10.4416921604928454   F   F   F
  6.3653325213266658  1.7883671105567651 22.8941910220536542   F   F   F
  7.8963400475734469  6.3885790150607598 19.7660873195667577   F   F   F
 11.0667343043359327  4.5664571684898592 10.4440006539639558   F   F   F
  6.3081042299502892  7.3008297649736900 25.9596984619172240   F   F   F
 11.0609364355787942  0.9033405476064857 19.7713743850682455   F   F   F
  3.1366688330793782 -3.6670216858646381 25.8967067072748556   F   F   F
  6.3195593027903998 -9.1378768581494274 13.5813110173503482   F   F   F
 14.2336132891808003 -0.9139803355046884 13.5779821107689074   F   F   F
 14.2436678861699129 -0.9245951840447938 25.9526724697202340   F   F   F
 14.2245147847607978  0.9063553323158233 16.6318564041678165   F   F   F
  6.3157092204670002 -7.3165707478348674 19.7670989925220226   F   F   F
  9.4856700907923290 -9.1372296681043093 13.5829771094200336   F   F   F
 12.6512994701650747 -3.6580954511135548 13.5804799742674991   F   F   F
  6.3087032810826100 -9.1396431676310268 25.9469400204809091   F   F   F
  7.8942497768436777 -11.8870515117715669 25.9477663293126746   F   F   F
 12.6698634096905938  1.8370945053620049 25.9712591379289712   F   F   F
 12.6477197203456111  1.8260836417401511 13.5784373271815522   F   F   F
 12.6217960436723242  1.8086835064194615 22.8283299473198902   F   F   F
 11.0626357249700131 -4.5771243622760895 19.7701423873694715   F   F   F
 12.6453517595108451  3.6449470652572922 19.7701165310771714   F   F   F
 11.0682972012084058 -6.3960223172121449 13.5803153680128350   F   F   F
 11.0474626901698851 -6.4191537088608728 25.9729813126609130   F   F   F
 12.6483663189858095  1.8269396646518745 10.4417147392269616   F   F   F
  6.3164327970195417 -7.3187412941644201 16.6283982161253938   F   F   F
  6.3200180848183685 -9.1378268424037774 10.4442501125579437   F   F   F
  6.3069680739398821 -9.1548834449183953 22.8063601107332516   F   F   F
 12.6453700348425855  3.6437977993439499 16.6316084022662096   F   F   F
  7.8979921059126070 -4.5781276918358316 19.7691321711068468   F   F   F
  7.9013860960836384 -6.3969994741488234 13.5797629173747154   F   F   F
  7.8709858334002449 -6.4079899203839847 25.9486243212070455   F   F   F
  7.8975307131229764 -10.0567159835376323 16.6312183728440530   F   F   F
  9.4805601972922080 -7.3180307965180438 16.6286917396681382   F   F   F
 12.6149650253197372 -3.6717859254345231 22.8299323090919870   F   F   F
 12.6501720166935563 -3.6555742464470438 10.4418793454816257   F   F   F
  7.9030872842106064 -6.3990895841971573 10.4438185673988961   F   F   F
  7.8992751766024565 -6.4049131983677059 22.8160838974774443   F   F   F
 12.6434311091756157 -1.8343525462674974 16.6299251940595489   F   F   F
  7.8985879924853473 -4.5754021762742196 16.6305963651380431   F   F   F
  9.4612555134783030 -9.1499232532492609 25.9614035205119364   F   F   F
 14.2254682665683010  0.9031918706640512 19.7696988244971763   F   F   F
  7.9035997055238489 -11.8764091203139834 10.4425523374259157   F   F   F
  7.8850524590501951 -11.8819359287174677 22.8078707008764994   F   F   F
 12.6532285065832628 -3.6727684265193146 25.9736910860912715   F   F   F
 11.0614522587936079 -4.5749827291583349 16.6308185107473498   F   F   F
  6.3150079540596868  9.1290854603673601 16.6286942888799949   F   F   F
 11.0183738209846886 -0.9312626255068676 22.8877269489961712   F   F   F
 11.0635968808345631  0.9042068477260855 16.6307496820257725   F   F   F
  7.9029791353863228 10.0496726703215966 13.5774999455447425   F   F   F
  7.8982128339447009 10.0370267714217185 25.9320497095413955   F   F   F
  7.8956807906948132 11.8691096990745244 16.6296535209043483   F   F   F
  7.9031167937288442 10.0455376699401668 10.4399368460061730   F   F   F
  7.8666188202661944 10.0318273263504114 22.7932826536350568   F   F   F
  3.1511540508504812 -1.8355126375065223 19.7645126349527622   F   F   F
  6.3187930837972059  7.3064302952159590 10.4414434302451742   F   F   F
  7.8951707428012430 11.8684537391453002 19.7663400557191871   F   F   F
  3.1567960650472977 -3.6570670451663623 13.5790753585053157   F   F   F
  3.1578546893474959 -3.6556302914880647 10.4420231938679748   F   F   F
  3.1183808431509878 -3.6743886626179600 22.7655909288299583   F   F   F
  4.7375802150663455  0.9065464883846667 19.7681762166404233   F   F   F
  4.7388038711497371 -0.9134065932393528 13.5801726121459687   F   F   F
  4.6748463020118995 -0.9481480782508818 25.9152791727316405   F   F   F
  4.7354801342018478  0.9071180381788765 16.6311990716681173   F   F   F
  4.7401803754616942 -0.9144465096595826 10.4414266782811005   F   F   F
  3.1509225633157008 -1.8337709933241180 16.6291651647372376   F   F   F
  6.2953581750213479  7.2878862381302358 22.8209539847449996   F   F   F
 11.0633334312478198  6.3857889586329213 16.6285125664881015   F   F   F
  7.9034705123781706 -0.9159546556761853 13.5785698862007109   F   F   F
 11.1228217719765006 -0.9215882100134036 26.0096145803269323   F   F   F
 11.0668448265800006 -0.9129887904767892 13.5800109192760683   F   F   F
 11.0673705390435408 -6.3954661147151208 10.4440483606440502   F   F   F
 11.0505947339199952 -6.3960630149558826 22.8369579371160718   F   F   F
  9.4787524426207188 -9.1443487586006054 22.8211885122407168   F   F   F
  9.4795313198522368 -7.3166874969177673 19.7674267483389734   F   F   F
  9.4850853592922011 -9.1364216054965635 10.4433917564906729   F   F   F
 12.6429737511994720 -1.8354231572821975 19.7688685097606474   F   F   F
  9.4761976145416256 -3.6022622576679231 22.8859035341342469   F   F   F
  9.4840333805671495 -3.6563499701069038 10.4422471603430864   F   F   F
  9.4797052124022532 -1.8359168743544756 16.6304099084955794   F   F   F
  9.4517149991962484 -3.7053308693759881 26.0116117057717489   F   F   F
  9.4850371788722949 -3.6537817643424781 13.5811853776204554   F   F   F
  7.8990835625186753 -10.0555402709423234 19.7682304784368839   F   F   F
  7.9001988324356791 -11.8773846328973409 13.5795480552278320   F   F   F
  9.4771609064838582 -1.8341130188063248 19.7704512061836475   F   F   F
 11.0432896645393441  4.5373641740246731 22.8116868711058309   F   F   F
 11.0684282139758370 -0.9149496817631271 10.4414434302451742   F   F   F
  8.0803364825982982 -0.8150058894047670 26.2827815734861723   T   T   T
  8.8261669471936539 -0.3432805038658193 28.4157597169137759   T   T   T
  9.9090818530753229  0.2411208704634615 29.0539479992928058   T   T   T
  7.8463879658936229 -0.9393032079720582 30.5325495389667374   T   T   T
  9.9454671682162239  0.2253293237389832 30.4626031700607669   T   T   T
  8.9165955827014844 -0.3497774807045366 31.2211725222925978   T   T   T
  7.7940412450422425 -0.9409006971835792 29.1188695073510395   T   T   T
  8.9819109061356333 -0.3339849747739788 32.7344346037874345   T   T   T
 10.7985829901324735  0.6816892930967411 30.9764019289450871   T   T   T
  7.0279118880429134 -1.3959081859685367 31.1012983814367558   T   T   T
  6.9288750966251520 -1.4134660421746161 28.6319154065715367   T   T   T
 10.7314273961769331  0.7042114518551429 28.5048757952098164   T   T   T
  9.4975769214375045 -1.2264685428197353 33.1302755008259666   T   T   T
  9.5394224468262330  0.5432155627991413 33.0997556074931936   T   T   T
  7.9817239173171721 -0.3088078706155785 33.1940513202172198   T   T   T
  6.8197809223064327 -1.5354254264668279 26.1389317304436730   T   T   T
  ! improved dimer method
           0           0           0  
           0           0           0  
           0           0           0  
           0           0           0  
           0           0           0  
           0           0           0  
           0           0           0  
           0           0           0  
           0           0           0  
           0           0           0  
           0           0           0  
           0           0           0  
           0           0           0  
           0           0           0  
           0           0           0  
           0           0           0  
           0           0           0  
           0           0           0  
           0           0           0  
           0           0           0  
           0           0           0  
           0           0           0  
           0           0           0  
           0           0           0  
           0           0           0  
           0           0           0  
           0           0           0  
           0           0           0  
           0           0           0  
           0           0           0  
           0           0           0  
           0           0           0  
           0           0           0  
           0           0           0  
           0           0           0  
           0           0           0  
           0           0           0  
           0           0           0  
           0           0           0  
           0           0           0  
           0           0           0  
           0           0           0  
           0           0           0  
           0           0           0  
           0           0           0  
           0           0           0  
           0           0           0  
           0           0           0  
           0           0           0  
           0           0           0  
           0           0           0  
           0           0           0  
           0           0           0  
           0           0           0  
           0           0           0  
           0           0           0  
           0           0           0  
           0           0           0  
           0           0           0  
           0           0           0  
           0           0           0  
           0           0           0  
           0           0           0  
           0           0           0  
           0           0           0  
           0           0           0  
           0           0           0  
           0           0           0  
           0           0           0  
           0           0           0  
           0           0           0  
           0           0           0  
           0           0           0  
           0           0           0  
           0           0           0  
           0           0           0  
           0           0           0  
           0           0           0  
           0           0           0  
           0           0           0  
           0           0           0  
           0           0           0  
           0           0           0  
           0           0           0  
           0           0           0  
           0           0           0  
           0           0           0  
           0           0           0  
           0           0           0  
           0           0           0  
           0           0           0  
           0           0           0  
           0           0           0  
           0           0           0  
           0           0           0  
           0           0           0  
           0           0           0  
           0           0           0  
           0           0           0  
           0           0           0  
           0           0           0  
           0           0           0  
           0           0           0  
           0           0           0  
           0           0           0  
           0           0           0  
           0           0           0  
           0           0           0  
           0           0           0  
           0           0           0  
           0           0           0  
           0           0           0  
           0           0           0  
           0           0           0  
           0           0           0  
           0           0           0  
           0           0           0  
           0           0           0  
           0           0           0  
           0           0           0  
           0           0           0  
           0           0           0  
           0           0           0  
           0           0           0  
           0           0           0  
           0           0           0  
           0           0           0  
           0           0           0  
           0           0           0  
           0           0           0  
           0           0           0  
           0           0           0  
           0           0           0  
           0           0           0  
           0           0           0  
           0           0           0  
           0           0           0  
           0           0           0  
           0           0           0  
           0           0           0  
           0           0           0  
           0           0           0  
           0           0           0  
           0           0           0  
           0           0           0  
           0           0           0  
           0           0           0  
           0           0           0  
           0           0           0  
           0           0           0  
           0           0           0  
           0           0           0  
           0           0           0  
           0           0           0  
           0           0           0  
           0           0           0  
           0           0           0  
           0           0           0  
           0           0           0  
           0           0           0  
           0           0           0  
           0           0           0  
           0           0           0  
           0           0           0  
           0           0           0  
           0           0           0  
           0           0           0  
           0           0           0  
           0           0           0  
           0           0           0  
           0           0           0  
           0           0           0  
           0           0           0  
           0           0           0  
           0           0           0  
           0           0           0  
           0           0           0  
           0           0           0  
           0           0           0  
           0           0           0  
           0           0           0  
           0           0           0  
           0           0           0  
           0           0           0  
           0           0           0  
           0           0           0  
           0           0           0  
           0           0           0  
           0           0           0  
           0           0           0  
           0           0           0  
           0           0           0  
           0           0           0  
           0           0           0  
           0           0           0  
           0           0           0  
           0           0           0  
           0           0           0  
           0           0           0  
           0           0           0  
           0           0           0  
           0           0           0  
           0           0           0  
           0           0           0  
           0           0           0  
           0           0           0  
           0           0           0  
           0           0           0  
           0           0           0  
           0           0           0  
           0           0           0  
           0           0           0  
           0           0           0  
           0           0           0  
           0           0           0  
           0           0           0  
           0           0           0  
           0           0           0  
           0           0           0  
           0           0           0  
           0           0           0  
           0           0           0  
           0           0           0  
           0           0           0  
   -0.019415   -0.014591   -0.107761  
   -0.035892   -0.012966    0.050982  
   -0.021569   -0.009823    0.016284  
   -0.012881   -0.008179    0.037690  
   -0.008689   -0.005679    0.015410  
   -0.005309   -0.003852    0.020808  
   -0.029178   -0.014504    0.038883  
    0.003916    0.000759    0.018899  
   -0.005277   -0.004814    0.009217  
   -0.005718   -0.005137    0.050570  
   -0.039315   -0.016382    0.057806  
   -0.029680   -0.012488    0.002464  
    0.006613    0.002247    0.018616  
    0.005379    0.002110    0.013203  
    0.006553    0.001871    0.024305  
    0.134326    0.076344    0.671490  
