Mo S  H  C  F  H                        
    1.000000000000000     
     7.9113990000000003  -13.7029440000000005    0.0000000000000000
     7.9113990000000003   13.7029440000000005    0.0000000000000000
     0.0000000000000000    0.0000000000000000   36.4173130000000000
   Mo   S    H    C    F 
    75   150     5     6     1
Direct
  0.1312905637860950  0.0627232192549059  0.4998018250349290
  0.6650032006102364  0.7305252899236692  0.6708019330989785
  0.2636786140334095  0.9282832535490826  0.6690657103279065
  0.2653917687547818  0.9303430053258239  0.3299112463297789
  0.3312820812576476  0.8625911261870485  0.4998398351458420
  0.7314929710605043  0.8627266749953435  0.4998463285388794
  0.6653379232541710  0.9304203762357233  0.3299400000313355
  0.6641010947746864  0.9288512162710063  0.6696053883168531
  0.2634024263432551  0.7283116858057781  0.6695406228605876
  0.2653012197339777  0.7303079675876489  0.3298892373672544
  0.6652342912153699  0.7303990256555579  0.3299355646839288
  0.3313593720603123  0.6626921721439984  0.4999502295329137
  0.2639853851528713  0.5288829915910256  0.6707581011598620
  0.2654101981875669  0.5303702073225693  0.3298919312920461
  0.3315293606718370  0.4628675015200585  0.4999182371430564
  0.8653368681378382  0.1303524841340860  0.3298958608033473
  0.8642946948258725  0.1286498788392976  0.6698177790296143
  0.2657516296934332  0.3292770964060878  0.6708356494278576
  0.2653740813521708  0.3303477742398471  0.3299396001569832
  0.3313999683730700  0.2627390663606803  0.4999680554923742
  0.9314244725179108  0.2626785738736288  0.4999528223693517
  0.7314108663067316  0.0626671339159302  0.4998621720175720
  0.5313356864354404  0.0625934966836255  0.4997980667672479
  0.4653836024799176  0.1303967678290761  0.3299024303321758
  0.4641539543559006  0.1269150718077086  0.6686119209783925
  0.6654280003860222  0.1304618230855894  0.3299031780015156
  0.6640009705260894  0.1280420858002529  0.6692720843221949
  0.4637503571547867  0.9282223917145060  0.6690482079241633
  0.4653687136356410  0.9303657085091501  0.3299865305510181
  0.5313325192081493  0.8625893116107051  0.4998686332559572
  0.7313791634886400  0.2626870117795974  0.4999026954914640
  0.4631100334503415  0.7297706189888515  0.6695641767842844
  0.4653173110930950  0.7303453590935334  0.3299385500031065
  0.5315035746537617  0.6627445134824583  0.4999231496880938
  0.6653810918203149  0.3303756858177351  0.3298694083509659
  0.6629369997414187  0.3263520758863336  0.6693234258666863
  0.4660112750097269  0.5309859573431126  0.6741610066482195
  0.4653776776271101  0.5303467275886717  0.3299524830167613
  0.5314378716796071  0.4627014815248742  0.4999349631710359
  0.7313465406320248  0.4627645051786260  0.4998989542725667
  0.6653711824755817  0.5304106578333361  0.3299527415440053
  0.6621055491633001  0.5287466453506013  0.6736192817772846
  0.4655999353335147  0.3226901896938230  0.6664589065600381
  0.4654593711484480  0.3303908984492452  0.3299189170513444
  0.5313733892763111  0.2626648344896338  0.4999494598076026
  0.7313815560565118  0.6626994713302352  0.4998999580034820
  0.8654192876477751  0.3303954803103082  0.3299313492384570
  0.8639482807912984  0.3281787758073094  0.6700082300049388
  0.9314451389782477  0.0627319665629997  0.4998088942143113
  0.2642658428758295  0.1289360461765483  0.6690991030029139
  0.0637690416104988  0.7283251203060885  0.6696991006715649
  0.0653997818375842  0.7303233106185374  0.3298778882201390
  0.1312218838899426  0.6626992866222494  0.4998928397410651
  0.9312556187946939  0.6626976518545362  0.4998756982022527
  0.8655667296809426  0.7296989751329548  0.6700156926074783
  0.0635135473402713  0.5283068012195997  0.6700640494497563
  0.0653760862907262  0.5303131118742286  0.3299480264322199
  0.8633646626166680  0.5283185100404992  0.6706501199119259
  0.1314185182500935  0.4627898295492372  0.4999622224428464
  0.0643741598475174  0.3284948876738980  0.6704038252280569
  0.0653706663839699  0.3303132246558746  0.3299409389228529
  0.1315233561239850  0.2628733091247000  0.4999207372076242
  0.8652725555384819  0.9302918540932765  0.3299584516111977
  0.8646712757647137  0.9293027965539409  0.6698504185118352
  0.0646949956151204  0.1288937043447049  0.6699207276808252
  0.0652865556412010  0.1302595253599108  0.3299243654913653
  0.9313193271315185  0.8626039232530189  0.4997736767055443
  0.8653829861794620  0.5303511155209009  0.3299601273061015
  0.8652961521255449  0.7303297298516966  0.3299666303649929
  0.2653225665442420  0.1303749232443181  0.3298817949181796
  0.3312771458162729  0.0625955800866720  0.4998024404040748
  0.1312742140408076  0.8627155871409400  0.4997816373547721
  0.9312440210934909  0.4626546233331368  0.4999266670062070
  0.0644889132198116  0.9291334289940352  0.6695275120534774
  0.0653375904556484  0.9302610363707942  0.3299167234684148
  0.6646989609085594  0.9292610294247723  0.4567803777516204
  0.6648798390199246  0.3295101031349077  0.5429873778228398
  0.7320977033840137  0.2638580449444845  0.3730014465161489
  0.7297056954967758  0.2605622193884045  0.7126436236739480
  0.8647394084055975  0.1294489025064678  0.4567806896964370
  0.8646893277199013  0.3293221744714714  0.4568433526634053
  0.9295042378415204  0.6605327193262696  0.6269917713162769
  0.9320208009872601  0.6637382247630583  0.2868911531229799
  0.7321953876949365  0.2638067256098111  0.2868503208091013
  0.7318357781421270  0.2621362193229189  0.6264013878224333
  0.8645867248599117  0.7292341108787568  0.4567247062409123
  0.6647180997599449  0.3294726072594329  0.4568422668925720
  0.9303100280631824  0.2613058880439851  0.7131819078002763
  0.8649047016467009  0.9293434478942970  0.5428740092218334
  0.9318561765478037  0.0634979814125529  0.2868734332639775
  0.9313998217838133  0.0625634573344556  0.6267144992689566
  0.9316572929218836  0.6625114249645065  0.7132560513750335
  0.7314435623954481  0.0618523774469750  0.6264219211548294
  0.7320987195118462  0.0637296120913149  0.2868527435548884
  0.6648436237438133  0.1294575154211870  0.4567509939531718
  0.7303548873258734  0.0619998791289404  0.7126125839093120
  0.7320893453949964  0.0638770334461256  0.3729951359181101
  0.9320345238155028  0.8636441178668406  0.3730799851305164
  0.9324833167274491  0.8636762006779080  0.7129030040738442
  0.8647824620876960  0.9294272468135887  0.4566965986626528
  0.6646035746443388  0.1292336756076509  0.5429291124412501
  0.9319023340106511  0.2635456342904803  0.3730011255880257
  0.9322201359636537  0.6637976281291174  0.3730228253472987
  0.9312462602862226  0.0624375222641547  0.7128975164779305
  0.7319857121976980  0.8637986048374984  0.2868749518980565
  0.7321562293926647  0.8647989358275439  0.7132711017743176
  0.7319380749408211  0.8637228363593650  0.3730552950753676
  0.7309330212523761  0.8615861699154479  0.6268880445545975
  0.8645967544832729  0.5294169833312097  0.5429923328324691
  0.6647558103244720  0.9292951256688724  0.5429204689514933
  0.9320667263318541  0.4636516518029339  0.3730899550628664
  0.9303950712279487  0.4612172600401294  0.7132361546611392
  0.8646373679072070  0.5293443093483958  0.4568220091910717
  0.7289367513590435  0.6594080151027057  0.6285557823111105
  0.7319485095132876  0.6637487696446769  0.2869084538571087
  0.6648054074351322  0.7294252493688376  0.4568112744915140
  0.7360357342089259  0.6671812941325683  0.7135408111677748
  0.7318858545866291  0.6638178005243915  0.3730486320004047
  0.6649064250265297  0.7295059679624956  0.5430073415248842
  0.9321415652713156  0.4637070245887713  0.2869197326784558
  0.9294696250997134  0.4618409571298443  0.6271748399046828
  0.9316750823754063  0.2624031383207139  0.6269933060715829
  0.8646860855964746  0.3293619106688510  0.5430330513700454
  0.9320446581466442  0.2637268527244814  0.2868685993865583
  0.8646387108257301  0.7293560617657278  0.5429958337487761
  0.7282351067708248  0.4644209495041665  0.6284264526185908
  0.7320414291703656  0.4637636565672167  0.2868875226405834
  0.6646335490938071  0.5293887364520629  0.4568222717672086
  0.7301476133213001  0.4592080608895870  0.7140420329370514
  0.7318639817814514  0.4634884150246918  0.3730143849592906
  0.8647332324275112  0.1291276018045195  0.5429996264734100
  0.9318609068547232  0.0636784137900861  0.3730294492991391
  0.6647307121268966  0.5294003330378132  0.5430016944146203
  0.5309468899750627  0.8615127816949055  0.6261168991873305
  0.5320793779688984  0.4636533850723552  0.3730634503913919
  0.4646078214202447  0.9291830154658882  0.4567350596825648
  0.1296924897946354  0.6608542835827151  0.6265833983077229
  0.0644937931164051  0.9292873919081259  0.5428453142132810
  0.1320136823803111  0.8635660298091921  0.3729946074301438
  0.1312450347668417  0.8623490829653875  0.7124120173436168
  0.0646638461000606  0.9294656402615686  0.4566533033924571
  0.1321680609821598  0.8637171461423918  0.2868166587141801
  0.1298427123786254  0.8612893124806362  0.6263020721818577
  0.2644539841266109  0.1290451125092815  0.5429349256951070
  0.1319836647570227  0.6635226786130985  0.2868311343224192
  0.3319856075989946  0.0637573442514068  0.3729725135091186
  0.2647529369974677  0.1295072498644458  0.4567821837363013
  0.3319101564295437  0.0637717812918268  0.2868548491221077
  0.3298982406124580  0.0613275769848229  0.6258616159955324
  0.2648655127562733  0.3296690736356283  0.5430294029557956
  0.3320742409260191  0.2636049646822229  0.3729937749503165
  0.3365550794410268  0.2636300407413472  0.7119301095808765
  0.2649490016212965  0.3295580093935087  0.4568540090490671
  0.3322075620056850  0.2637981724033196  0.2868708061557257
  0.3309457386866796  0.0616923455935279  0.7118683773947296
  0.0645877052699433  0.7293250151498896  0.4567612243315651
  0.1306703742843069  0.6622240789405254  0.7128105159124303
  0.1319791040892184  0.6636298834420344  0.3730125190176068
  0.0646739831255800  0.1293250928888980  0.5429169120798178
  0.1321315378545336  0.0636384587447836  0.3729984075452393
  0.1321693530127703  0.0625265920900517  0.7126470597701271
  0.0648916073160279  0.1297436016233036  0.4567335742616123
  0.1318870923503894  0.0634956439274745  0.2868498331418365
  0.1303321358503666  0.0622517823095663  0.6263816146607795
  0.0648896440243192  0.3294580631693051  0.5430626125628351
  0.1319702576280122  0.2635605682252375  0.3730611510893098
  0.1312086821204161  0.2613027646185202  0.7134043057800383
  0.0648207499818199  0.3295363572002472  0.4568695356096342
  0.1320581274483672  0.2636835616894615  0.2868961999486856
  0.1326895008311126  0.2633972600541412  0.6274392133056068
  0.0645618497668750  0.5293857646862534  0.5429973637996213
  0.1322353602936062  0.4637874347792206  0.3730165757340913
  0.1297786543175832  0.4619026989266004  0.7134256717922511
  0.0645457649951524  0.5293202969004653  0.4568519538157148
  0.1320244238493586  0.4636675962060508  0.2868793848029512
  0.1310620953190167  0.4615605457763650  0.6273442759366787
  0.0645262366042942  0.7294764128236082  0.5429255509931679
  0.3283193705813474  0.2619550701789493  0.6255768173325009
  0.2648357644494652  0.5294527069519077  0.5430787712621239
  0.3319981250192967  0.4637814790081762  0.3730295053707309
  0.3284282382113375  0.4614192678641160  0.7146344019909421
  0.5292495440679161  0.2592885403036149  0.7117894198241785
  0.4647088471904794  0.3293124354907491  0.4568643726697275
  0.5320168386556787  0.2636652642478836  0.2868120916878141
  0.5329239033124935  0.2584960676483377  0.6244485769331547
  0.4648794872954838  0.5294431043405865  0.5430047512875404
  0.9318949359087938  0.8635753435568176  0.2869001380731220
  0.4649637726377449  0.5294570270950345  0.4568399880282783
  0.5321190557356843  0.4637822065362656  0.2868887298505953
  0.5317113577257970  0.4654491217573948  0.6294550426894432
  0.4648131237337410  0.7293031542739143  0.5430258327371007
  0.5318950731923664  0.6636139333088735  0.3730633144995394
  0.5305927385661136  0.6697622620588604  0.7133234822073433
  0.4646682346293218  0.7292009442921241  0.4568234677267853
  0.5318655909908117  0.6636339192412777  0.2868731172915844
  0.5303583233532621  0.6595569335039571  0.6283854756222880
  0.4646535550212718  0.9292931686685648  0.5429162310650426
  0.5320368673327209  0.8635742932278347  0.3730690798158562
  0.5301980197418601  0.8632060613734822  0.7125072893221116
  0.5321929445791156  0.2637703015953079  0.3729953276774225
  0.5319938099263410  0.8637125259230629  0.2868956071936495
  0.4647510408891478  0.3293803505139650  0.5430919866238213
  0.5320876163175186  0.0637147429811975  0.2868831938421508
  0.2647402390327258  0.5294648739803378  0.4568544038638080
  0.3321632247786610  0.4636678505480987  0.2868701458433023
  0.3352878124119130  0.4643039309656629  0.6290624419370303
  0.2644899644905863  0.7293426300219394  0.5429890815150316
  0.3318907851320247  0.6636677343686088  0.3729886978819650
  0.3301900249297560  0.6633519275087352  0.7131189879101143
  0.2645444663385064  0.7291845836168207  0.4568027053011718
  0.3320672828331084  0.6636780612449371  0.2868478270879464
  0.3295251088733764  0.6602771170330897  0.6267207230468586
  0.2645576675306955  0.9292330643205418  0.5428662661485646
  0.3318319624314583  0.8634485099450515  0.3730632952176833
  0.3304659045496194  0.8623414718813933  0.7122086499758424
  0.2646597800959753  0.9292650469924411  0.4567070577678010
  0.3321031842005837  0.8637175706931401  0.2868877961166234
  0.3299041933585514  0.8610081421469431  0.6261036050741282
  0.4644960697226921  0.1289988278784975  0.5428936666260356
  0.5322023345386881  0.0639420493900147  0.3730550227436638
  0.5301688423038300  0.0610147094277877  0.7121135510782111
  0.4647543717948253  0.1294915072379084  0.4567545197070970
  0.5311404496257097  0.0605536953551677  0.6257648207328756
  0.9305675818593642  0.8620386451808457  0.6266190640433678
  0.5377244968007986  0.4902274075835891  0.7315035756154913
  0.5496684832829217  0.4134589764802072  0.6945492129314346
  0.6487523214514042  0.7071060505231159  0.7650811446209360
  0.6792270544658479  0.7540070408414365  0.8301396110429664
  0.5164653514980699  0.4523945858676228  0.8627713319709898
  0.4845771939632968  0.4022908416706343  0.7966892453755889
  0.5623663447310747  0.5502980896492460  0.7758400517648241
  0.6179938304069026  0.6495333304046156  0.7856041889602210
  0.5438901967016392  0.5065908815921887  0.8408454534527365
  0.6361612576890252  0.6772735458812278  0.8223830329070125
  0.5988129174646843  0.6053589865286497  0.8492752122572327
  0.5262357901673411  0.4796208146051697  0.8040102584433839
  0.6171484430582694  0.6326076971361090  0.8851531554788963
 
  0.00000000E+00  0.00000000E+00  0.00000000E+00
  0.00000000E+00  0.00000000E+00  0.00000000E+00
  0.00000000E+00  0.00000000E+00  0.00000000E+00
  0.00000000E+00  0.00000000E+00  0.00000000E+00
  0.00000000E+00  0.00000000E+00  0.00000000E+00
  0.00000000E+00  0.00000000E+00  0.00000000E+00
  0.00000000E+00  0.00000000E+00  0.00000000E+00
  0.00000000E+00  0.00000000E+00  0.00000000E+00
  0.00000000E+00  0.00000000E+00  0.00000000E+00
  0.00000000E+00  0.00000000E+00  0.00000000E+00
  0.00000000E+00  0.00000000E+00  0.00000000E+00
  0.00000000E+00  0.00000000E+00  0.00000000E+00
  0.00000000E+00  0.00000000E+00  0.00000000E+00
  0.00000000E+00  0.00000000E+00  0.00000000E+00
  0.00000000E+00  0.00000000E+00  0.00000000E+00
  0.00000000E+00  0.00000000E+00  0.00000000E+00
  0.00000000E+00  0.00000000E+00  0.00000000E+00
  0.00000000E+00  0.00000000E+00  0.00000000E+00
  0.00000000E+00  0.00000000E+00  0.00000000E+00
  0.00000000E+00  0.00000000E+00  0.00000000E+00
  0.00000000E+00  0.00000000E+00  0.00000000E+00
  0.00000000E+00  0.00000000E+00  0.00000000E+00
  0.00000000E+00  0.00000000E+00  0.00000000E+00
  0.00000000E+00  0.00000000E+00  0.00000000E+00
  0.00000000E+00  0.00000000E+00  0.00000000E+00
  0.00000000E+00  0.00000000E+00  0.00000000E+00
  0.00000000E+00  0.00000000E+00  0.00000000E+00
  0.00000000E+00  0.00000000E+00  0.00000000E+00
  0.00000000E+00  0.00000000E+00  0.00000000E+00
  0.00000000E+00  0.00000000E+00  0.00000000E+00
  0.00000000E+00  0.00000000E+00  0.00000000E+00
  0.00000000E+00  0.00000000E+00  0.00000000E+00
  0.00000000E+00  0.00000000E+00  0.00000000E+00
  0.00000000E+00  0.00000000E+00  0.00000000E+00
  0.00000000E+00  0.00000000E+00  0.00000000E+00
  0.00000000E+00  0.00000000E+00  0.00000000E+00
  0.00000000E+00  0.00000000E+00  0.00000000E+00
  0.00000000E+00  0.00000000E+00  0.00000000E+00
  0.00000000E+00  0.00000000E+00  0.00000000E+00
  0.00000000E+00  0.00000000E+00  0.00000000E+00
  0.00000000E+00  0.00000000E+00  0.00000000E+00
  0.00000000E+00  0.00000000E+00  0.00000000E+00
  0.00000000E+00  0.00000000E+00  0.00000000E+00
  0.00000000E+00  0.00000000E+00  0.00000000E+00
  0.00000000E+00  0.00000000E+00  0.00000000E+00
  0.00000000E+00  0.00000000E+00  0.00000000E+00
  0.00000000E+00  0.00000000E+00  0.00000000E+00
  0.00000000E+00  0.00000000E+00  0.00000000E+00
  0.00000000E+00  0.00000000E+00  0.00000000E+00
  0.00000000E+00  0.00000000E+00  0.00000000E+00
  0.00000000E+00  0.00000000E+00  0.00000000E+00
  0.00000000E+00  0.00000000E+00  0.00000000E+00
  0.00000000E+00  0.00000000E+00  0.00000000E+00
  0.00000000E+00  0.00000000E+00  0.00000000E+00
  0.00000000E+00  0.00000000E+00  0.00000000E+00
  0.00000000E+00  0.00000000E+00  0.00000000E+00
  0.00000000E+00  0.00000000E+00  0.00000000E+00
  0.00000000E+00  0.00000000E+00  0.00000000E+00
  0.00000000E+00  0.00000000E+00  0.00000000E+00
  0.00000000E+00  0.00000000E+00  0.00000000E+00
  0.00000000E+00  0.00000000E+00  0.00000000E+00
  0.00000000E+00  0.00000000E+00  0.00000000E+00
  0.00000000E+00  0.00000000E+00  0.00000000E+00
  0.00000000E+00  0.00000000E+00  0.00000000E+00
  0.00000000E+00  0.00000000E+00  0.00000000E+00
  0.00000000E+00  0.00000000E+00  0.00000000E+00
  0.00000000E+00  0.00000000E+00  0.00000000E+00
  0.00000000E+00  0.00000000E+00  0.00000000E+00
  0.00000000E+00  0.00000000E+00  0.00000000E+00
  0.00000000E+00  0.00000000E+00  0.00000000E+00
  0.00000000E+00  0.00000000E+00  0.00000000E+00
  0.00000000E+00  0.00000000E+00  0.00000000E+00
  0.00000000E+00  0.00000000E+00  0.00000000E+00
  0.00000000E+00  0.00000000E+00  0.00000000E+00
  0.00000000E+00  0.00000000E+00  0.00000000E+00
  0.00000000E+00  0.00000000E+00  0.00000000E+00
  0.00000000E+00  0.00000000E+00  0.00000000E+00
  0.00000000E+00  0.00000000E+00  0.00000000E+00
  0.00000000E+00  0.00000000E+00  0.00000000E+00
  0.00000000E+00  0.00000000E+00  0.00000000E+00
  0.00000000E+00  0.00000000E+00  0.00000000E+00
  0.00000000E+00  0.00000000E+00  0.00000000E+00
  0.00000000E+00  0.00000000E+00  0.00000000E+00
  0.00000000E+00  0.00000000E+00  0.00000000E+00
  0.00000000E+00  0.00000000E+00  0.00000000E+00
  0.00000000E+00  0.00000000E+00  0.00000000E+00
  0.00000000E+00  0.00000000E+00  0.00000000E+00
  0.00000000E+00  0.00000000E+00  0.00000000E+00
  0.00000000E+00  0.00000000E+00  0.00000000E+00
  0.00000000E+00  0.00000000E+00  0.00000000E+00
  0.00000000E+00  0.00000000E+00  0.00000000E+00
  0.00000000E+00  0.00000000E+00  0.00000000E+00
  0.00000000E+00  0.00000000E+00  0.00000000E+00
  0.00000000E+00  0.00000000E+00  0.00000000E+00
  0.00000000E+00  0.00000000E+00  0.00000000E+00
  0.00000000E+00  0.00000000E+00  0.00000000E+00
  0.00000000E+00  0.00000000E+00  0.00000000E+00
  0.00000000E+00  0.00000000E+00  0.00000000E+00
  0.00000000E+00  0.00000000E+00  0.00000000E+00
  0.00000000E+00  0.00000000E+00  0.00000000E+00
  0.00000000E+00  0.00000000E+00  0.00000000E+00
  0.00000000E+00  0.00000000E+00  0.00000000E+00
  0.00000000E+00  0.00000000E+00  0.00000000E+00
  0.00000000E+00  0.00000000E+00  0.00000000E+00
  0.00000000E+00  0.00000000E+00  0.00000000E+00
  0.00000000E+00  0.00000000E+00  0.00000000E+00
  0.00000000E+00  0.00000000E+00  0.00000000E+00
  0.00000000E+00  0.00000000E+00  0.00000000E+00
  0.00000000E+00  0.00000000E+00  0.00000000E+00
  0.00000000E+00  0.00000000E+00  0.00000000E+00
  0.00000000E+00  0.00000000E+00  0.00000000E+00
  0.00000000E+00  0.00000000E+00  0.00000000E+00
  0.00000000E+00  0.00000000E+00  0.00000000E+00
  0.00000000E+00  0.00000000E+00  0.00000000E+00
  0.00000000E+00  0.00000000E+00  0.00000000E+00
  0.00000000E+00  0.00000000E+00  0.00000000E+00
  0.00000000E+00  0.00000000E+00  0.00000000E+00
  0.00000000E+00  0.00000000E+00  0.00000000E+00
  0.00000000E+00  0.00000000E+00  0.00000000E+00
  0.00000000E+00  0.00000000E+00  0.00000000E+00
  0.00000000E+00  0.00000000E+00  0.00000000E+00
  0.00000000E+00  0.00000000E+00  0.00000000E+00
  0.00000000E+00  0.00000000E+00  0.00000000E+00
  0.00000000E+00  0.00000000E+00  0.00000000E+00
  0.00000000E+00  0.00000000E+00  0.00000000E+00
  0.00000000E+00  0.00000000E+00  0.00000000E+00
  0.00000000E+00  0.00000000E+00  0.00000000E+00
  0.00000000E+00  0.00000000E+00  0.00000000E+00
  0.00000000E+00  0.00000000E+00  0.00000000E+00
  0.00000000E+00  0.00000000E+00  0.00000000E+00
  0.00000000E+00  0.00000000E+00  0.00000000E+00
  0.00000000E+00  0.00000000E+00  0.00000000E+00
  0.00000000E+00  0.00000000E+00  0.00000000E+00
  0.00000000E+00  0.00000000E+00  0.00000000E+00
  0.00000000E+00  0.00000000E+00  0.00000000E+00
  0.00000000E+00  0.00000000E+00  0.00000000E+00
  0.00000000E+00  0.00000000E+00  0.00000000E+00
  0.00000000E+00  0.00000000E+00  0.00000000E+00
  0.00000000E+00  0.00000000E+00  0.00000000E+00
  0.00000000E+00  0.00000000E+00  0.00000000E+00
  0.00000000E+00  0.00000000E+00  0.00000000E+00
  0.00000000E+00  0.00000000E+00  0.00000000E+00
  0.00000000E+00  0.00000000E+00  0.00000000E+00
  0.00000000E+00  0.00000000E+00  0.00000000E+00
  0.00000000E+00  0.00000000E+00  0.00000000E+00
  0.00000000E+00  0.00000000E+00  0.00000000E+00
  0.00000000E+00  0.00000000E+00  0.00000000E+00
  0.00000000E+00  0.00000000E+00  0.00000000E+00
  0.00000000E+00  0.00000000E+00  0.00000000E+00
  0.00000000E+00  0.00000000E+00  0.00000000E+00
  0.00000000E+00  0.00000000E+00  0.00000000E+00
  0.00000000E+00  0.00000000E+00  0.00000000E+00
  0.00000000E+00  0.00000000E+00  0.00000000E+00
  0.00000000E+00  0.00000000E+00  0.00000000E+00
  0.00000000E+00  0.00000000E+00  0.00000000E+00
  0.00000000E+00  0.00000000E+00  0.00000000E+00
  0.00000000E+00  0.00000000E+00  0.00000000E+00
  0.00000000E+00  0.00000000E+00  0.00000000E+00
  0.00000000E+00  0.00000000E+00  0.00000000E+00
  0.00000000E+00  0.00000000E+00  0.00000000E+00
  0.00000000E+00  0.00000000E+00  0.00000000E+00
  0.00000000E+00  0.00000000E+00  0.00000000E+00
  0.00000000E+00  0.00000000E+00  0.00000000E+00
  0.00000000E+00  0.00000000E+00  0.00000000E+00
  0.00000000E+00  0.00000000E+00  0.00000000E+00
  0.00000000E+00  0.00000000E+00  0.00000000E+00
  0.00000000E+00  0.00000000E+00  0.00000000E+00
  0.00000000E+00  0.00000000E+00  0.00000000E+00
  0.00000000E+00  0.00000000E+00  0.00000000E+00
  0.00000000E+00  0.00000000E+00  0.00000000E+00
  0.00000000E+00  0.00000000E+00  0.00000000E+00
  0.00000000E+00  0.00000000E+00  0.00000000E+00
  0.00000000E+00  0.00000000E+00  0.00000000E+00
  0.00000000E+00  0.00000000E+00  0.00000000E+00
  0.00000000E+00  0.00000000E+00  0.00000000E+00
  0.00000000E+00  0.00000000E+00  0.00000000E+00
  0.00000000E+00  0.00000000E+00  0.00000000E+00
  0.00000000E+00  0.00000000E+00  0.00000000E+00
  0.00000000E+00  0.00000000E+00  0.00000000E+00
  0.00000000E+00  0.00000000E+00  0.00000000E+00
  0.00000000E+00  0.00000000E+00  0.00000000E+00
  0.00000000E+00  0.00000000E+00  0.00000000E+00
  0.00000000E+00  0.00000000E+00  0.00000000E+00
  0.00000000E+00  0.00000000E+00  0.00000000E+00
  0.00000000E+00  0.00000000E+00  0.00000000E+00
  0.00000000E+00  0.00000000E+00  0.00000000E+00
  0.00000000E+00  0.00000000E+00  0.00000000E+00
  0.00000000E+00  0.00000000E+00  0.00000000E+00
  0.00000000E+00  0.00000000E+00  0.00000000E+00
  0.00000000E+00  0.00000000E+00  0.00000000E+00
  0.00000000E+00  0.00000000E+00  0.00000000E+00
  0.00000000E+00  0.00000000E+00  0.00000000E+00
  0.00000000E+00  0.00000000E+00  0.00000000E+00
  0.00000000E+00  0.00000000E+00  0.00000000E+00
  0.00000000E+00  0.00000000E+00  0.00000000E+00
  0.00000000E+00  0.00000000E+00  0.00000000E+00
  0.00000000E+00  0.00000000E+00  0.00000000E+00
  0.00000000E+00  0.00000000E+00  0.00000000E+00
  0.00000000E+00  0.00000000E+00  0.00000000E+00
  0.00000000E+00  0.00000000E+00  0.00000000E+00
  0.00000000E+00  0.00000000E+00  0.00000000E+00
  0.00000000E+00  0.00000000E+00  0.00000000E+00
  0.00000000E+00  0.00000000E+00  0.00000000E+00
  0.00000000E+00  0.00000000E+00  0.00000000E+00
  0.00000000E+00  0.00000000E+00  0.00000000E+00
  0.00000000E+00  0.00000000E+00  0.00000000E+00
  0.00000000E+00  0.00000000E+00  0.00000000E+00
  0.00000000E+00  0.00000000E+00  0.00000000E+00
  0.00000000E+00  0.00000000E+00  0.00000000E+00
  0.00000000E+00  0.00000000E+00  0.00000000E+00
  0.00000000E+00  0.00000000E+00  0.00000000E+00
  0.00000000E+00  0.00000000E+00  0.00000000E+00
  0.00000000E+00  0.00000000E+00  0.00000000E+00
  0.00000000E+00  0.00000000E+00  0.00000000E+00
  0.00000000E+00  0.00000000E+00  0.00000000E+00
  0.00000000E+00  0.00000000E+00  0.00000000E+00
  0.00000000E+00  0.00000000E+00  0.00000000E+00
  0.00000000E+00  0.00000000E+00  0.00000000E+00
  0.00000000E+00  0.00000000E+00  0.00000000E+00
  0.00000000E+00  0.00000000E+00  0.00000000E+00
  0.00000000E+00  0.00000000E+00  0.00000000E+00
  0.00000000E+00  0.00000000E+00  0.00000000E+00
  0.00000000E+00  0.00000000E+00  0.00000000E+00
  0.00000000E+00  0.00000000E+00  0.00000000E+00
  0.00000000E+00  0.00000000E+00  0.00000000E+00
  0.00000000E+00  0.00000000E+00  0.00000000E+00
  0.00000000E+00  0.00000000E+00  0.00000000E+00
  0.00000000E+00  0.00000000E+00  0.00000000E+00
  0.00000000E+00  0.00000000E+00  0.00000000E+00
  0.00000000E+00  0.00000000E+00  0.00000000E+00
  0.00000000E+00  0.00000000E+00  0.00000000E+00
  0.00000000E+00  0.00000000E+00  0.00000000E+00
  0.00000000E+00  0.00000000E+00  0.00000000E+00
  0.00000000E+00  0.00000000E+00  0.00000000E+00
  0.00000000E+00  0.00000000E+00  0.00000000E+00
  0.00000000E+00  0.00000000E+00  0.00000000E+00
  0.00000000E+00  0.00000000E+00  0.00000000E+00
