C  F  H  S                              
   1.00000000000000     
     7.9113985352808234  -13.7029442220323787    0.0000000000000000
     7.9113985352808278   13.7029442220323787    0.0000000000000000
     0.0000000000000000    0.0000000000000000   36.4173130480389986
   C    F    H    S 
     6     1     5     1
Direct
  0.5108411300437723  0.5111729620712850  0.4830132096233584
  0.5562040434921371  0.5995708506786457  0.5024773675666268
  0.4692938702965463  0.4225793103333544  0.5407680619217956
  0.5583032243611257  0.5999821424918252  0.5407580923062412
  0.5147887511415092  0.5112632010709817  0.5592055362255337
  0.4673910597552791  0.4228461048553740  0.5024589646921882
  0.5168717082215437  0.5112959615199415  0.5967654908310180
  0.4661054318738067  0.4204013945314458  0.4283908465182336
  0.5903842519206322  0.6688424038217491  0.4876413013928840
  0.5932950191054971  0.6681149739088355  0.5562241158424968
  0.4358241014117468  0.3544374088228039  0.5562405320666315
  0.4316073220318799  0.3534139142144355  0.4877591948620719
  0.5111346246846367  0.5174552527608398  0.4345361069505600
 
  0.00000000E+00  0.00000000E+00  0.00000000E+00
  0.00000000E+00  0.00000000E+00  0.00000000E+00
  0.00000000E+00  0.00000000E+00  0.00000000E+00
  0.00000000E+00  0.00000000E+00  0.00000000E+00
  0.00000000E+00  0.00000000E+00  0.00000000E+00
  0.00000000E+00  0.00000000E+00  0.00000000E+00
  0.00000000E+00  0.00000000E+00  0.00000000E+00
  0.00000000E+00  0.00000000E+00  0.00000000E+00
  0.00000000E+00  0.00000000E+00  0.00000000E+00
  0.00000000E+00  0.00000000E+00  0.00000000E+00
  0.00000000E+00  0.00000000E+00  0.00000000E+00
  0.00000000E+00  0.00000000E+00  0.00000000E+00
  0.00000000E+00  0.00000000E+00  0.00000000E+00
