C  F  H  S                              
   1.00000000000000     
     7.9113985352808234  -13.7029442220323787    0.0000000000000000
     7.9113985352808278   13.7029442220323787    0.0000000000000000
     0.0000000000000000    0.0000000000000000   36.4173130480389986
   C    F    H    S 
     6     1     5     1
Direct
  0.5108411300437724  0.5111729620712866  0.4830132096233581
  0.5562040434921339  0.5995708506786455  0.5024773675666290
  0.4692938702965432  0.4225793103333533  0.5407680619217945
  0.5583032243611225  0.5999821424918251  0.5407580923062382
  0.5147887511415112  0.5112632010709832  0.5592055362255323
  0.4673910597552789  0.4228461048553725  0.5024589646921872
  0.5168717082215439  0.5112959615199412  0.5967654908310165
  0.4661054318738097  0.4204013945314490  0.4283908465182341
  0.5903842519206322  0.6688424038217490  0.4876413013928807
  0.5932950191054988  0.6681149739088384  0.5562241158424949
  0.4358241014117479  0.3544374088228039  0.5562405320666308
  0.4316073220318815  0.3534139142144334  0.4877591948620739
  0.5111346246846369  0.5174552527608428  0.4345361069505621
 
  0.00000000E+00  0.00000000E+00  0.00000000E+00
  0.00000000E+00  0.00000000E+00  0.00000000E+00
  0.00000000E+00  0.00000000E+00  0.00000000E+00
  0.00000000E+00  0.00000000E+00  0.00000000E+00
  0.00000000E+00  0.00000000E+00  0.00000000E+00
  0.00000000E+00  0.00000000E+00  0.00000000E+00
  0.00000000E+00  0.00000000E+00  0.00000000E+00
  0.00000000E+00  0.00000000E+00  0.00000000E+00
  0.00000000E+00  0.00000000E+00  0.00000000E+00
  0.00000000E+00  0.00000000E+00  0.00000000E+00
  0.00000000E+00  0.00000000E+00  0.00000000E+00
  0.00000000E+00  0.00000000E+00  0.00000000E+00
  0.00000000E+00  0.00000000E+00  0.00000000E+00
