Mo  S                                   
   1.00000000000000     
     7.9113985352808234  -13.7029442220323787    0.0000000000000000
     7.9113985352808278   13.7029442220323787    0.0000000000000000
     0.0000000000000000    0.0000000000000000   36.4173130480389986
   Mo   S 
    75   150
Direct
  0.1333333333333329  0.0666666666666700  0.4999196514774908
  0.6666666666666643  0.7333333333333343  0.6699804280490795
  0.2666666666666657  0.9333333333333300  0.6699804280490795
  0.2666666666666657  0.9333333333333300  0.3300934153939892
  0.3333333333333357  0.8666666666666671  0.4999196514774908
  0.7333333333333343  0.8666666666666671  0.4999196514774908
  0.6666666666666643  0.9333333333333300  0.3300934153939892
  0.6666666666666643  0.9333333333333300  0.6699804280490795
  0.2666666666666657  0.7333333333333343  0.6699804280490795
  0.2666666666666657  0.7333333333333343  0.3300934153939892
  0.6666666666666643  0.7333333333333343  0.3300934153939892
  0.3333333333333357  0.6666666666666643  0.4999196514774908
  0.2666666666666657  0.5333333333333314  0.6699804280490795
  0.2666666666666657  0.5333333333333314  0.3300934153939892
  0.3333333333333357  0.4666666666666686  0.4999196514774908
  0.8666666666666671  0.1333333333333329  0.3300934153939892
  0.8666666666666671  0.1333333333333329  0.6699804280490795
  0.2666666666666657  0.3333333333333357  0.6699804280490795
  0.2666666666666657  0.3333333333333357  0.3300934153939892
  0.3333333333333357  0.2666666666666657  0.4999196514774908
  0.9333333333333300  0.2666666666666657  0.4999196514774908
  0.7333333333333343  0.0666666666666700  0.4999196514774908
  0.5333333333333314  0.0666666666666700  0.4999196514774908
  0.4666666666666686  0.1333333333333329  0.3300934153939892
  0.4666666666666686  0.1333333333333329  0.6699804280490795
  0.6666666666666643  0.1333333333333329  0.3300934153939892
  0.6666666666666643  0.1333333333333329  0.6699804280490795
  0.4666666666666686  0.9333333333333300  0.6699804280490795
  0.4666666666666686  0.9333333333333300  0.3300934153939892
  0.5333333333333314  0.8666666666666671  0.4999196514774908
  0.7333333333333343  0.2666666666666657  0.4999196514774908
  0.4666666666666686  0.7333333333333343  0.6699804280490795
  0.4666666666666686  0.7333333333333343  0.3300934153939892
  0.5333333333333314  0.6666666666666643  0.4999196514774908
  0.6666666666666643  0.3333333333333357  0.3300934153939892
  0.6666666666666643  0.3333333333333357  0.6699804280490795
  0.4666666666666686  0.5333333333333314  0.6699804280490795
  0.4666666666666686  0.5333333333333314  0.3300934153939892
  0.5333333333333314  0.4666666666666686  0.4999196514774908
  0.7333333333333343  0.4666666666666686  0.4999196514774908
  0.6666666666666643  0.5333333333333314  0.3300934153939892
  0.6666666666666643  0.5333333333333314  0.6699804280490795
  0.4666666666666686  0.3333333333333357  0.6699804280490795
  0.4666666666666686  0.3333333333333357  0.3300934153939892
  0.5333333333333314  0.2666666666666657  0.4999196514774908
  0.7333333333333343  0.6666666666666643  0.4999196514774908
  0.8666666666666671  0.3333333333333357  0.3300934153939892
  0.8666666666666671  0.3333333333333357  0.6699804280490795
  0.9333333333333300  0.0666666666666700  0.4999196514774908
  0.2666666666666657  0.1333333333333329  0.6699804280490795
  0.0666666666666700  0.7333333333333343  0.6699804280490795
  0.0666666666666700  0.7333333333333343  0.3300934153939892
  0.1333333333333329  0.6666666666666643  0.4999196514774908
  0.9333333333333300  0.6666666666666643  0.4999196514774908
  0.8666666666666671  0.7333333333333343  0.6699804280490795
  0.0666666666666700  0.5333333333333314  0.6699804280490795
  0.0666666666666700  0.5333333333333314  0.3300934153939892
  0.8666666666666671  0.5333333333333314  0.6699804280490795
  0.1333333333333329  0.4666666666666686  0.4999196514774908
  0.0666666666666700  0.3333333333333357  0.6699804280490795
  0.0666666666666700  0.3333333333333357  0.3300934153939892
  0.1333333333333329  0.2666666666666657  0.4999196514774908
  0.8666666666666671  0.9333333333333300  0.3300934153939892
  0.8666666666666671  0.9333333333333300  0.6699804280490795
  0.0666666666666700  0.1333333333333329  0.6699804280490795
  0.0666666666666700  0.1333333333333329  0.3300934153939892
  0.9333333333333300  0.8666666666666671  0.4999196514774908
  0.8666666666666671  0.5333333333333314  0.3300934153939892
  0.8666666666666671  0.7333333333333343  0.3300934153939892
  0.2666666666666657  0.1333333333333329  0.3300934153939892
  0.3333333333333357  0.0666666666666700  0.4999196514774908
  0.1333333333333329  0.8666666666666671  0.4999196514774908
  0.9333333333333300  0.4666666666666686  0.4999196514774908
  0.0666666666666700  0.9333333333333300  0.6699804280490795
  0.0666666666666700  0.9333333333333300  0.3300934153939892
  0.6666666666666643  0.9333333333333300  0.4568368071528468
  0.6666666666666643  0.3333333333333357  0.5429987025732714
  0.7333333333333343  0.2666666666666657  0.3731909985048460
  0.7333333333333343  0.2666666666666657  0.7130327869638649
  0.8666666666666671  0.1333333333333329  0.4568368071528468
  0.8666666666666671  0.3333333333333357  0.4568368071528468
  0.9333333333333300  0.6666666666666643  0.6268650347413143
  0.9333333333333300  0.6666666666666643  0.2870540671503505
  0.7333333333333343  0.2666666666666657  0.2870540671503505
  0.7333333333333343  0.2666666666666657  0.6268650347413143
  0.8666666666666671  0.7333333333333343  0.4568368071528468
  0.6666666666666643  0.3333333333333357  0.4568368071528468
  0.9333333333333300  0.2666666666666657  0.7130327869638649
  0.8666666666666671  0.9333333333333300  0.5429987025732714
  0.9333333333333300  0.0666666666666700  0.2870540671503505
  0.9333333333333300  0.0666666666666700  0.6268650347413143
  0.9333333333333300  0.6666666666666643  0.7130327869638649
  0.7333333333333343  0.0666666666666700  0.6268650347413143
  0.7333333333333343  0.0666666666666700  0.2870540671503505
  0.6666666666666643  0.1333333333333329  0.4568368071528468
  0.7333333333333343  0.0666666666666700  0.7130327869638649
  0.7333333333333343  0.0666666666666700  0.3731909985048460
  0.9333333333333300  0.8666666666666671  0.3731909985048460
  0.9333333333333300  0.8666666666666671  0.7130327869638649
  0.8666666666666671  0.9333333333333300  0.4568368071528468
  0.6666666666666643  0.1333333333333329  0.5429987025732714
  0.9333333333333300  0.2666666666666657  0.3731909985048460
  0.9333333333333300  0.6666666666666643  0.3731909985048460
  0.9333333333333300  0.0666666666666700  0.7130327869638649
  0.7333333333333343  0.8666666666666671  0.2870540671503505
  0.7333333333333343  0.8666666666666671  0.7130327869638649
  0.7333333333333343  0.8666666666666671  0.3731909985048460
  0.7333333333333343  0.8666666666666671  0.6268650347413143
  0.8666666666666671  0.5333333333333314  0.5429987025732714
  0.6666666666666643  0.9333333333333300  0.5429987025732714
  0.9333333333333300  0.4666666666666686  0.3731909985048460
  0.9333333333333300  0.4666666666666686  0.7130327869638649
  0.8666666666666671  0.5333333333333314  0.4568368071528468
  0.7333333333333343  0.6666666666666643  0.6268650347413143
  0.7333333333333343  0.6666666666666643  0.2870540671503505
  0.6666666666666643  0.7333333333333343  0.4568368071528468
  0.7333333333333343  0.6666666666666643  0.7130327869638649
  0.7333333333333343  0.6666666666666643  0.3731909985048460
  0.6666666666666643  0.7333333333333343  0.5429987025732714
  0.9333333333333300  0.4666666666666686  0.2870540671503505
  0.9333333333333300  0.4666666666666686  0.6268650347413143
  0.9333333333333300  0.2666666666666657  0.6268650347413143
  0.8666666666666671  0.3333333333333357  0.5429987025732714
  0.9333333333333300  0.2666666666666657  0.2870540671503505
  0.8666666666666671  0.7333333333333343  0.5429987025732714
  0.7333333333333343  0.4666666666666686  0.6268650347413143
  0.7333333333333343  0.4666666666666686  0.2870540671503505
  0.6666666666666643  0.5333333333333314  0.4568368071528468
  0.7333333333333343  0.4666666666666686  0.7130327869638649
  0.7333333333333343  0.4666666666666686  0.3731909985048460
  0.8666666666666671  0.1333333333333329  0.5429987025732714
  0.9333333333333300  0.0666666666666700  0.3731909985048460
  0.6666666666666643  0.5333333333333314  0.5429987025732714
  0.5333333333333314  0.8666666666666671  0.6268650347413143
  0.5333333333333314  0.4666666666666686  0.3731909985048460
  0.4666666666666686  0.9333333333333300  0.4568368071528468
  0.1333333333333329  0.6666666666666643  0.6268650347413143
  0.0666666666666700  0.9333333333333300  0.5429987025732714
  0.1333333333333329  0.8666666666666671  0.3731909985048460
  0.1333333333333329  0.8666666666666671  0.7130327869638649
  0.0666666666666700  0.9333333333333300  0.4568368071528468
  0.1333333333333329  0.8666666666666671  0.2870540671503505
  0.1333333333333329  0.8666666666666671  0.6268650347413143
  0.2666666666666657  0.1333333333333329  0.5429987025732714
  0.1333333333333329  0.6666666666666643  0.2870540671503505
  0.3333333333333357  0.0666666666666700  0.3731909985048460
  0.2666666666666657  0.1333333333333329  0.4568368071528468
  0.3333333333333357  0.0666666666666700  0.2870540671503505
  0.3333333333333357  0.0666666666666700  0.6268650347413143
  0.2666666666666657  0.3333333333333357  0.5429987025732714
  0.3333333333333357  0.2666666666666657  0.3731909985048460
  0.3333333333333357  0.2666666666666657  0.7130327869638649
  0.2666666666666657  0.3333333333333357  0.4568368071528468
  0.3333333333333357  0.2666666666666657  0.2870540671503505
  0.3333333333333357  0.0666666666666700  0.7130327869638649
  0.0666666666666700  0.7333333333333343  0.4568368071528468
  0.1333333333333329  0.6666666666666643  0.7130327869638649
  0.1333333333333329  0.6666666666666643  0.3731909985048460
  0.0666666666666700  0.1333333333333329  0.5429987025732714
  0.1333333333333329  0.0666666666666700  0.3731909985048460
  0.1333333333333329  0.0666666666666700  0.7130327869638649
  0.0666666666666700  0.1333333333333329  0.4568368071528468
  0.1333333333333329  0.0666666666666700  0.2870540671503505
  0.1333333333333329  0.0666666666666700  0.6268650347413143
  0.0666666666666700  0.3333333333333357  0.5429987025732714
  0.1333333333333329  0.2666666666666657  0.3731909985048460
  0.1333333333333329  0.2666666666666657  0.7130327869638649
  0.0666666666666700  0.3333333333333357  0.4568368071528468
  0.1333333333333329  0.2666666666666657  0.2870540671503505
  0.1333333333333329  0.2666666666666657  0.6268650347413143
  0.0666666666666700  0.5333333333333314  0.5429987025732714
  0.1333333333333329  0.4666666666666686  0.3731909985048460
  0.1333333333333329  0.4666666666666686  0.7130327869638649
  0.0666666666666700  0.5333333333333314  0.4568368071528468
  0.1333333333333329  0.4666666666666686  0.2870540671503505
  0.1333333333333329  0.4666666666666686  0.6268650347413143
  0.0666666666666700  0.7333333333333343  0.5429987025732714
  0.3333333333333357  0.2666666666666657  0.6268650347413143
  0.2666666666666657  0.5333333333333314  0.5429987025732714
  0.3333333333333357  0.4666666666666686  0.3731909985048460
  0.3333333333333357  0.4666666666666686  0.7130327869638649
  0.5333333333333314  0.2666666666666657  0.7130327869638649
  0.4666666666666686  0.3333333333333357  0.4568368071528468
  0.5333333333333314  0.2666666666666657  0.2870540671503505
  0.5333333333333314  0.2666666666666657  0.6268650347413143
  0.4666666666666686  0.5333333333333314  0.5429987025732714
  0.9333333333333300  0.8666666666666671  0.2870540671503505
  0.5333333333333314  0.4666666666666686  0.7130327869638649
  0.4666666666666686  0.5333333333333314  0.4568368071528468
  0.5333333333333314  0.4666666666666686  0.2870540671503505
  0.5333333333333314  0.4666666666666686  0.6268650347413143
  0.4666666666666686  0.7333333333333343  0.5429987025732714
  0.5333333333333314  0.6666666666666643  0.3731909985048460
  0.5333333333333314  0.6666666666666643  0.7130327869638649
  0.4666666666666686  0.7333333333333343  0.4568368071528468
  0.5333333333333314  0.6666666666666643  0.2870540671503505
  0.5333333333333314  0.6666666666666643  0.6268650347413143
  0.4666666666666686  0.9333333333333300  0.5429987025732714
  0.5333333333333314  0.8666666666666671  0.3731909985048460
  0.5333333333333314  0.8666666666666671  0.7130327869638649
  0.5333333333333314  0.2666666666666657  0.3731909985048460
  0.5333333333333314  0.8666666666666671  0.2870540671503505
  0.4666666666666686  0.3333333333333357  0.5429987025732714
  0.5333333333333314  0.0666666666666700  0.2870540671503505
  0.2666666666666657  0.5333333333333314  0.4568368071528468
  0.3333333333333357  0.4666666666666686  0.2870540671503505
  0.3333333333333357  0.4666666666666686  0.6268650347413143
  0.2666666666666657  0.7333333333333343  0.5429987025732714
  0.3333333333333357  0.6666666666666643  0.3731909985048460
  0.3333333333333357  0.6666666666666643  0.7130327869638649
  0.2666666666666657  0.7333333333333343  0.4568368071528468
  0.3333333333333357  0.6666666666666643  0.2870540671503505
  0.3333333333333357  0.6666666666666643  0.6268650347413143
  0.2666666666666657  0.9333333333333300  0.5429987025732714
  0.3333333333333357  0.8666666666666671  0.3731909985048460
  0.3333333333333357  0.8666666666666671  0.7130327869638649
  0.2666666666666657  0.9333333333333300  0.4568368071528468
  0.3333333333333357  0.8666666666666671  0.2870540671503505
  0.3333333333333357  0.8666666666666671  0.6268650347413143
  0.4666666666666686  0.1333333333333329  0.5429987025732714
  0.5333333333333314  0.0666666666666700  0.3731909985048460
  0.5333333333333314  0.0666666666666700  0.7130327869638649
  0.4666666666666686  0.1333333333333329  0.4568368071528468
  0.5333333333333314  0.0666666666666700  0.6268650347413143
  0.9333333333333300  0.8666666666666671  0.6268650347413143
 
  0.00000000E+00  0.00000000E+00  0.00000000E+00
  0.00000000E+00  0.00000000E+00  0.00000000E+00
  0.00000000E+00  0.00000000E+00  0.00000000E+00
  0.00000000E+00  0.00000000E+00  0.00000000E+00
  0.00000000E+00  0.00000000E+00  0.00000000E+00
  0.00000000E+00  0.00000000E+00  0.00000000E+00
  0.00000000E+00  0.00000000E+00  0.00000000E+00
  0.00000000E+00  0.00000000E+00  0.00000000E+00
  0.00000000E+00  0.00000000E+00  0.00000000E+00
  0.00000000E+00  0.00000000E+00  0.00000000E+00
  0.00000000E+00  0.00000000E+00  0.00000000E+00
  0.00000000E+00  0.00000000E+00  0.00000000E+00
  0.00000000E+00  0.00000000E+00  0.00000000E+00
  0.00000000E+00  0.00000000E+00  0.00000000E+00
  0.00000000E+00  0.00000000E+00  0.00000000E+00
  0.00000000E+00  0.00000000E+00  0.00000000E+00
  0.00000000E+00  0.00000000E+00  0.00000000E+00
  0.00000000E+00  0.00000000E+00  0.00000000E+00
  0.00000000E+00  0.00000000E+00  0.00000000E+00
  0.00000000E+00  0.00000000E+00  0.00000000E+00
  0.00000000E+00  0.00000000E+00  0.00000000E+00
  0.00000000E+00  0.00000000E+00  0.00000000E+00
  0.00000000E+00  0.00000000E+00  0.00000000E+00
  0.00000000E+00  0.00000000E+00  0.00000000E+00
  0.00000000E+00  0.00000000E+00  0.00000000E+00
  0.00000000E+00  0.00000000E+00  0.00000000E+00
  0.00000000E+00  0.00000000E+00  0.00000000E+00
  0.00000000E+00  0.00000000E+00  0.00000000E+00
  0.00000000E+00  0.00000000E+00  0.00000000E+00
  0.00000000E+00  0.00000000E+00  0.00000000E+00
  0.00000000E+00  0.00000000E+00  0.00000000E+00
  0.00000000E+00  0.00000000E+00  0.00000000E+00
  0.00000000E+00  0.00000000E+00  0.00000000E+00
  0.00000000E+00  0.00000000E+00  0.00000000E+00
  0.00000000E+00  0.00000000E+00  0.00000000E+00
  0.00000000E+00  0.00000000E+00  0.00000000E+00
  0.00000000E+00  0.00000000E+00  0.00000000E+00
  0.00000000E+00  0.00000000E+00  0.00000000E+00
  0.00000000E+00  0.00000000E+00  0.00000000E+00
  0.00000000E+00  0.00000000E+00  0.00000000E+00
  0.00000000E+00  0.00000000E+00  0.00000000E+00
  0.00000000E+00  0.00000000E+00  0.00000000E+00
  0.00000000E+00  0.00000000E+00  0.00000000E+00
  0.00000000E+00  0.00000000E+00  0.00000000E+00
  0.00000000E+00  0.00000000E+00  0.00000000E+00
  0.00000000E+00  0.00000000E+00  0.00000000E+00
  0.00000000E+00  0.00000000E+00  0.00000000E+00
  0.00000000E+00  0.00000000E+00  0.00000000E+00
  0.00000000E+00  0.00000000E+00  0.00000000E+00
  0.00000000E+00  0.00000000E+00  0.00000000E+00
  0.00000000E+00  0.00000000E+00  0.00000000E+00
  0.00000000E+00  0.00000000E+00  0.00000000E+00
  0.00000000E+00  0.00000000E+00  0.00000000E+00
  0.00000000E+00  0.00000000E+00  0.00000000E+00
  0.00000000E+00  0.00000000E+00  0.00000000E+00
  0.00000000E+00  0.00000000E+00  0.00000000E+00
  0.00000000E+00  0.00000000E+00  0.00000000E+00
  0.00000000E+00  0.00000000E+00  0.00000000E+00
  0.00000000E+00  0.00000000E+00  0.00000000E+00
  0.00000000E+00  0.00000000E+00  0.00000000E+00
  0.00000000E+00  0.00000000E+00  0.00000000E+00
  0.00000000E+00  0.00000000E+00  0.00000000E+00
  0.00000000E+00  0.00000000E+00  0.00000000E+00
  0.00000000E+00  0.00000000E+00  0.00000000E+00
  0.00000000E+00  0.00000000E+00  0.00000000E+00
  0.00000000E+00  0.00000000E+00  0.00000000E+00
  0.00000000E+00  0.00000000E+00  0.00000000E+00
  0.00000000E+00  0.00000000E+00  0.00000000E+00
  0.00000000E+00  0.00000000E+00  0.00000000E+00
  0.00000000E+00  0.00000000E+00  0.00000000E+00
  0.00000000E+00  0.00000000E+00  0.00000000E+00
  0.00000000E+00  0.00000000E+00  0.00000000E+00
  0.00000000E+00  0.00000000E+00  0.00000000E+00
  0.00000000E+00  0.00000000E+00  0.00000000E+00
  0.00000000E+00  0.00000000E+00  0.00000000E+00
  0.00000000E+00  0.00000000E+00  0.00000000E+00
  0.00000000E+00  0.00000000E+00  0.00000000E+00
  0.00000000E+00  0.00000000E+00  0.00000000E+00
  0.00000000E+00  0.00000000E+00  0.00000000E+00
  0.00000000E+00  0.00000000E+00  0.00000000E+00
  0.00000000E+00  0.00000000E+00  0.00000000E+00
  0.00000000E+00  0.00000000E+00  0.00000000E+00
  0.00000000E+00  0.00000000E+00  0.00000000E+00
  0.00000000E+00  0.00000000E+00  0.00000000E+00
  0.00000000E+00  0.00000000E+00  0.00000000E+00
  0.00000000E+00  0.00000000E+00  0.00000000E+00
  0.00000000E+00  0.00000000E+00  0.00000000E+00
  0.00000000E+00  0.00000000E+00  0.00000000E+00
  0.00000000E+00  0.00000000E+00  0.00000000E+00
  0.00000000E+00  0.00000000E+00  0.00000000E+00
  0.00000000E+00  0.00000000E+00  0.00000000E+00
  0.00000000E+00  0.00000000E+00  0.00000000E+00
  0.00000000E+00  0.00000000E+00  0.00000000E+00
  0.00000000E+00  0.00000000E+00  0.00000000E+00
  0.00000000E+00  0.00000000E+00  0.00000000E+00
  0.00000000E+00  0.00000000E+00  0.00000000E+00
  0.00000000E+00  0.00000000E+00  0.00000000E+00
  0.00000000E+00  0.00000000E+00  0.00000000E+00
  0.00000000E+00  0.00000000E+00  0.00000000E+00
  0.00000000E+00  0.00000000E+00  0.00000000E+00
  0.00000000E+00  0.00000000E+00  0.00000000E+00
  0.00000000E+00  0.00000000E+00  0.00000000E+00
  0.00000000E+00  0.00000000E+00  0.00000000E+00
  0.00000000E+00  0.00000000E+00  0.00000000E+00
  0.00000000E+00  0.00000000E+00  0.00000000E+00
  0.00000000E+00  0.00000000E+00  0.00000000E+00
  0.00000000E+00  0.00000000E+00  0.00000000E+00
  0.00000000E+00  0.00000000E+00  0.00000000E+00
  0.00000000E+00  0.00000000E+00  0.00000000E+00
  0.00000000E+00  0.00000000E+00  0.00000000E+00
  0.00000000E+00  0.00000000E+00  0.00000000E+00
  0.00000000E+00  0.00000000E+00  0.00000000E+00
  0.00000000E+00  0.00000000E+00  0.00000000E+00
  0.00000000E+00  0.00000000E+00  0.00000000E+00
  0.00000000E+00  0.00000000E+00  0.00000000E+00
  0.00000000E+00  0.00000000E+00  0.00000000E+00
  0.00000000E+00  0.00000000E+00  0.00000000E+00
  0.00000000E+00  0.00000000E+00  0.00000000E+00
  0.00000000E+00  0.00000000E+00  0.00000000E+00
  0.00000000E+00  0.00000000E+00  0.00000000E+00
  0.00000000E+00  0.00000000E+00  0.00000000E+00
  0.00000000E+00  0.00000000E+00  0.00000000E+00
  0.00000000E+00  0.00000000E+00  0.00000000E+00
  0.00000000E+00  0.00000000E+00  0.00000000E+00
  0.00000000E+00  0.00000000E+00  0.00000000E+00
  0.00000000E+00  0.00000000E+00  0.00000000E+00
  0.00000000E+00  0.00000000E+00  0.00000000E+00
  0.00000000E+00  0.00000000E+00  0.00000000E+00
  0.00000000E+00  0.00000000E+00  0.00000000E+00
  0.00000000E+00  0.00000000E+00  0.00000000E+00
  0.00000000E+00  0.00000000E+00  0.00000000E+00
  0.00000000E+00  0.00000000E+00  0.00000000E+00
  0.00000000E+00  0.00000000E+00  0.00000000E+00
  0.00000000E+00  0.00000000E+00  0.00000000E+00
  0.00000000E+00  0.00000000E+00  0.00000000E+00
  0.00000000E+00  0.00000000E+00  0.00000000E+00
  0.00000000E+00  0.00000000E+00  0.00000000E+00
  0.00000000E+00  0.00000000E+00  0.00000000E+00
  0.00000000E+00  0.00000000E+00  0.00000000E+00
  0.00000000E+00  0.00000000E+00  0.00000000E+00
  0.00000000E+00  0.00000000E+00  0.00000000E+00
  0.00000000E+00  0.00000000E+00  0.00000000E+00
  0.00000000E+00  0.00000000E+00  0.00000000E+00
  0.00000000E+00  0.00000000E+00  0.00000000E+00
  0.00000000E+00  0.00000000E+00  0.00000000E+00
  0.00000000E+00  0.00000000E+00  0.00000000E+00
  0.00000000E+00  0.00000000E+00  0.00000000E+00
  0.00000000E+00  0.00000000E+00  0.00000000E+00
  0.00000000E+00  0.00000000E+00  0.00000000E+00
  0.00000000E+00  0.00000000E+00  0.00000000E+00
  0.00000000E+00  0.00000000E+00  0.00000000E+00
  0.00000000E+00  0.00000000E+00  0.00000000E+00
  0.00000000E+00  0.00000000E+00  0.00000000E+00
  0.00000000E+00  0.00000000E+00  0.00000000E+00
  0.00000000E+00  0.00000000E+00  0.00000000E+00
  0.00000000E+00  0.00000000E+00  0.00000000E+00
  0.00000000E+00  0.00000000E+00  0.00000000E+00
  0.00000000E+00  0.00000000E+00  0.00000000E+00
  0.00000000E+00  0.00000000E+00  0.00000000E+00
  0.00000000E+00  0.00000000E+00  0.00000000E+00
  0.00000000E+00  0.00000000E+00  0.00000000E+00
  0.00000000E+00  0.00000000E+00  0.00000000E+00
  0.00000000E+00  0.00000000E+00  0.00000000E+00
  0.00000000E+00  0.00000000E+00  0.00000000E+00
  0.00000000E+00  0.00000000E+00  0.00000000E+00
  0.00000000E+00  0.00000000E+00  0.00000000E+00
  0.00000000E+00  0.00000000E+00  0.00000000E+00
  0.00000000E+00  0.00000000E+00  0.00000000E+00
  0.00000000E+00  0.00000000E+00  0.00000000E+00
  0.00000000E+00  0.00000000E+00  0.00000000E+00
  0.00000000E+00  0.00000000E+00  0.00000000E+00
  0.00000000E+00  0.00000000E+00  0.00000000E+00
  0.00000000E+00  0.00000000E+00  0.00000000E+00
  0.00000000E+00  0.00000000E+00  0.00000000E+00
  0.00000000E+00  0.00000000E+00  0.00000000E+00
  0.00000000E+00  0.00000000E+00  0.00000000E+00
  0.00000000E+00  0.00000000E+00  0.00000000E+00
  0.00000000E+00  0.00000000E+00  0.00000000E+00
  0.00000000E+00  0.00000000E+00  0.00000000E+00
  0.00000000E+00  0.00000000E+00  0.00000000E+00
  0.00000000E+00  0.00000000E+00  0.00000000E+00
  0.00000000E+00  0.00000000E+00  0.00000000E+00
  0.00000000E+00  0.00000000E+00  0.00000000E+00
  0.00000000E+00  0.00000000E+00  0.00000000E+00
  0.00000000E+00  0.00000000E+00  0.00000000E+00
  0.00000000E+00  0.00000000E+00  0.00000000E+00
  0.00000000E+00  0.00000000E+00  0.00000000E+00
  0.00000000E+00  0.00000000E+00  0.00000000E+00
  0.00000000E+00  0.00000000E+00  0.00000000E+00
  0.00000000E+00  0.00000000E+00  0.00000000E+00
  0.00000000E+00  0.00000000E+00  0.00000000E+00
  0.00000000E+00  0.00000000E+00  0.00000000E+00
  0.00000000E+00  0.00000000E+00  0.00000000E+00
  0.00000000E+00  0.00000000E+00  0.00000000E+00
  0.00000000E+00  0.00000000E+00  0.00000000E+00
  0.00000000E+00  0.00000000E+00  0.00000000E+00
  0.00000000E+00  0.00000000E+00  0.00000000E+00
  0.00000000E+00  0.00000000E+00  0.00000000E+00
  0.00000000E+00  0.00000000E+00  0.00000000E+00
  0.00000000E+00  0.00000000E+00  0.00000000E+00
  0.00000000E+00  0.00000000E+00  0.00000000E+00
  0.00000000E+00  0.00000000E+00  0.00000000E+00
  0.00000000E+00  0.00000000E+00  0.00000000E+00
  0.00000000E+00  0.00000000E+00  0.00000000E+00
  0.00000000E+00  0.00000000E+00  0.00000000E+00
  0.00000000E+00  0.00000000E+00  0.00000000E+00
  0.00000000E+00  0.00000000E+00  0.00000000E+00
  0.00000000E+00  0.00000000E+00  0.00000000E+00
  0.00000000E+00  0.00000000E+00  0.00000000E+00
  0.00000000E+00  0.00000000E+00  0.00000000E+00
  0.00000000E+00  0.00000000E+00  0.00000000E+00
  0.00000000E+00  0.00000000E+00  0.00000000E+00
  0.00000000E+00  0.00000000E+00  0.00000000E+00
  0.00000000E+00  0.00000000E+00  0.00000000E+00
  0.00000000E+00  0.00000000E+00  0.00000000E+00
  0.00000000E+00  0.00000000E+00  0.00000000E+00
  0.00000000E+00  0.00000000E+00  0.00000000E+00
  0.00000000E+00  0.00000000E+00  0.00000000E+00
  0.00000000E+00  0.00000000E+00  0.00000000E+00
  0.00000000E+00  0.00000000E+00  0.00000000E+00
  0.00000000E+00  0.00000000E+00  0.00000000E+00
  0.00000000E+00  0.00000000E+00  0.00000000E+00
  0.00000000E+00  0.00000000E+00  0.00000000E+00
  0.00000000E+00  0.00000000E+00  0.00000000E+00
  0.00000000E+00  0.00000000E+00  0.00000000E+00
