Mo S                                    
   1.00000000000000     
     7.9113985352808234  -13.7029442220323787    0.0000000000000000
     7.9113985352808278   13.7029442220323787    0.0000000000000000
     0.0000000000000000    0.0000000000000000   23.1379258980095805
   Mo   S 
    25    49
Direct
  0.6653954185187306  0.7307908370374666  0.4986843280167865
  0.2667662423861784  0.9335324847723553  0.5012827875723318
  0.6663403733655159  0.9327226895700489  0.5003613002374560
  0.2667662423861784  0.7332337576138217  0.5012827875723318
  0.2677966522971594  0.5333582767027689  0.5003389160191156
  0.8666666666666671  0.1333333333333329  0.5002981266508076
  0.2692091629625332  0.3346045814812695  0.4986843280167865
  0.4666417232972311  0.1344383755943891  0.5003389160191156
  0.6663403733655159  0.1336176837954657  0.5003613002374560
  0.4667549478868573  0.9333774739434242  0.5010436333440053
  0.4666417232972311  0.7322033477028408  0.5003389160191156
  0.6653954185187306  0.3346045814812695  0.4986843280167865
  0.4688487642326284  0.5311512357673719  0.4968477358138896
  0.6623024715347446  0.5311512357673719  0.4968477358138896
  0.4688487642326284  0.3376975284652554  0.4968477358138896
  0.8663823162045343  0.3336596266344841  0.5003613002374560
  0.2677966522971594  0.1344383755943891  0.5003389160191156
  0.0664675152276449  0.7332337576138217  0.5012827875723318
  0.8655616244056111  0.7322033477028408  0.5003389160191156
  0.0666225260565757  0.5332450521131429  0.5010436333440053
  0.8655616244056111  0.5333582767027689  0.5003389160191156
  0.0672773104299513  0.3336596266344841  0.5003613002374560
  0.8663823162045343  0.9327226895700489  0.5003613002374560
  0.0672773104299513  0.1336176837954657  0.5003613002374560
  0.0666225260565757  0.9333774739434242  0.5010436333440053
  0.7320124837392190  0.2679875162607813  0.5673565916362380
  0.9338837165626731  0.6669418582813358  0.4330950544673805
  0.7332935222187147  0.2667064777812850  0.4322848001416876
  0.9334336484461691  0.2668672968923432  0.5679481238329094
  0.9335120437812833  0.0664879562187167  0.4327111344925333
  0.9319913580962813  0.6659956790481401  0.5685372705687360
  0.7329759124374278  0.0664879562187167  0.4327111344925333
  0.7331327031076569  0.0665663515538313  0.5679481238329094
  0.9320675954483668  0.8655889465933188  0.5683703110372044
  0.9334336484461691  0.0665663515538313  0.5679481238329094
  0.7320124837392190  0.8640249674784360  0.5673565916362380
  0.7332935222187147  0.8665870444374285  0.4322848001416876
  0.9320675954483668  0.4664786488550541  0.5683703110372044
  0.7336486715942370  0.6653177009007097  0.4308335938663849
  0.7274774385218896  0.6610347769844361  0.5664176381355917
  0.9335772909409567  0.4672235715718366  0.4329579330984896
  0.9335120437812833  0.2670240875625722  0.4327111344925333
  0.7336486715942370  0.4683309706935255  0.4308335938663849
  0.7274774385218896  0.4664426615374526  0.5664176381355917
  0.5327764284281636  0.8663537193691256  0.4329579330984896
  0.1334391186114444  0.6668782372228872  0.4335524603788612
  0.1331491196123517  0.8668508803876482  0.5690183435143016
  0.1334391186114444  0.8665608813885559  0.4335524603788612
  0.3330581417186642  0.0661162834373267  0.4330950544673805
  0.3389652230155639  0.2725225614781100  0.5664176381355917
  0.3340043209518601  0.0680086419037186  0.5685372705687360
  0.1331491196123517  0.6662982392247019  0.5690183435143016
  0.1344110534066817  0.0679324045516334  0.5683703110372044
  0.1336462806308745  0.0664227090590436  0.4329579330984896
  0.1359750325215638  0.2679875162607813  0.5673565916362380
  0.1334129555625715  0.2667064777812850  0.4322848001416876
  0.1344110534066817  0.4664786488550541  0.5683703110372044
  0.1336462806308745  0.4672235715718366  0.4329579330984896
  0.3346822990992903  0.2663513284057635  0.4308335938663849
  0.3389652230155639  0.4664426615374526  0.5664176381355917
  0.5335573384625473  0.2725225614781100  0.5664176381355917
  0.5316690293064744  0.2663513284057635  0.4308335938663849
  0.5333333333333314  0.4666666666666686  0.4281613222293069
  0.5335573384625473  0.6610347769844361  0.5664176381355917
  0.5316690293064744  0.6653177009007097  0.4308335938663849
  0.5335213511449464  0.8655889465933188  0.5683703110372044
  0.3346822990992903  0.4683309706935255  0.4308335938663849
  0.3340043209518601  0.6659956790481401  0.5685372705687360
  0.3330581417186642  0.6669418582813358  0.4330950544673805
  0.3337017607752980  0.8668508803876482  0.5690183435143016
  0.3331217627771127  0.8665608813885559  0.4335524603788612
  0.5335213511449464  0.0679324045516334  0.5683703110372044
  0.5327764284281636  0.0664227090590436  0.4329579330984896
  0.9335772909409567  0.8663537193691256  0.4329579330984896
 
  0.00000000E+00  0.00000000E+00  0.00000000E+00
  0.00000000E+00  0.00000000E+00  0.00000000E+00
  0.00000000E+00  0.00000000E+00  0.00000000E+00
  0.00000000E+00  0.00000000E+00  0.00000000E+00
  0.00000000E+00  0.00000000E+00  0.00000000E+00
  0.00000000E+00  0.00000000E+00  0.00000000E+00
  0.00000000E+00  0.00000000E+00  0.00000000E+00
  0.00000000E+00  0.00000000E+00  0.00000000E+00
  0.00000000E+00  0.00000000E+00  0.00000000E+00
  0.00000000E+00  0.00000000E+00  0.00000000E+00
  0.00000000E+00  0.00000000E+00  0.00000000E+00
  0.00000000E+00  0.00000000E+00  0.00000000E+00
  0.00000000E+00  0.00000000E+00  0.00000000E+00
  0.00000000E+00  0.00000000E+00  0.00000000E+00
  0.00000000E+00  0.00000000E+00  0.00000000E+00
  0.00000000E+00  0.00000000E+00  0.00000000E+00
  0.00000000E+00  0.00000000E+00  0.00000000E+00
  0.00000000E+00  0.00000000E+00  0.00000000E+00
  0.00000000E+00  0.00000000E+00  0.00000000E+00
  0.00000000E+00  0.00000000E+00  0.00000000E+00
  0.00000000E+00  0.00000000E+00  0.00000000E+00
  0.00000000E+00  0.00000000E+00  0.00000000E+00
  0.00000000E+00  0.00000000E+00  0.00000000E+00
  0.00000000E+00  0.00000000E+00  0.00000000E+00
  0.00000000E+00  0.00000000E+00  0.00000000E+00
  0.00000000E+00  0.00000000E+00  0.00000000E+00
  0.00000000E+00  0.00000000E+00  0.00000000E+00
  0.00000000E+00  0.00000000E+00  0.00000000E+00
  0.00000000E+00  0.00000000E+00  0.00000000E+00
  0.00000000E+00  0.00000000E+00  0.00000000E+00
  0.00000000E+00  0.00000000E+00  0.00000000E+00
  0.00000000E+00  0.00000000E+00  0.00000000E+00
  0.00000000E+00  0.00000000E+00  0.00000000E+00
  0.00000000E+00  0.00000000E+00  0.00000000E+00
  0.00000000E+00  0.00000000E+00  0.00000000E+00
  0.00000000E+00  0.00000000E+00  0.00000000E+00
  0.00000000E+00  0.00000000E+00  0.00000000E+00
  0.00000000E+00  0.00000000E+00  0.00000000E+00
  0.00000000E+00  0.00000000E+00  0.00000000E+00
  0.00000000E+00  0.00000000E+00  0.00000000E+00
  0.00000000E+00  0.00000000E+00  0.00000000E+00
  0.00000000E+00  0.00000000E+00  0.00000000E+00
  0.00000000E+00  0.00000000E+00  0.00000000E+00
  0.00000000E+00  0.00000000E+00  0.00000000E+00
  0.00000000E+00  0.00000000E+00  0.00000000E+00
  0.00000000E+00  0.00000000E+00  0.00000000E+00
  0.00000000E+00  0.00000000E+00  0.00000000E+00
  0.00000000E+00  0.00000000E+00  0.00000000E+00
  0.00000000E+00  0.00000000E+00  0.00000000E+00
  0.00000000E+00  0.00000000E+00  0.00000000E+00
  0.00000000E+00  0.00000000E+00  0.00000000E+00
  0.00000000E+00  0.00000000E+00  0.00000000E+00
  0.00000000E+00  0.00000000E+00  0.00000000E+00
  0.00000000E+00  0.00000000E+00  0.00000000E+00
  0.00000000E+00  0.00000000E+00  0.00000000E+00
  0.00000000E+00  0.00000000E+00  0.00000000E+00
  0.00000000E+00  0.00000000E+00  0.00000000E+00
  0.00000000E+00  0.00000000E+00  0.00000000E+00
  0.00000000E+00  0.00000000E+00  0.00000000E+00
  0.00000000E+00  0.00000000E+00  0.00000000E+00
  0.00000000E+00  0.00000000E+00  0.00000000E+00
  0.00000000E+00  0.00000000E+00  0.00000000E+00
  0.00000000E+00  0.00000000E+00  0.00000000E+00
  0.00000000E+00  0.00000000E+00  0.00000000E+00
  0.00000000E+00  0.00000000E+00  0.00000000E+00
  0.00000000E+00  0.00000000E+00  0.00000000E+00
  0.00000000E+00  0.00000000E+00  0.00000000E+00
  0.00000000E+00  0.00000000E+00  0.00000000E+00
  0.00000000E+00  0.00000000E+00  0.00000000E+00
  0.00000000E+00  0.00000000E+00  0.00000000E+00
  0.00000000E+00  0.00000000E+00  0.00000000E+00
  0.00000000E+00  0.00000000E+00  0.00000000E+00
  0.00000000E+00  0.00000000E+00  0.00000000E+00
  0.00000000E+00  0.00000000E+00  0.00000000E+00
