C  F  H 
 1.0000000000000000
     7.9113985352808234  -13.7029442220323787    0.0000000000000000
     7.9113985352808278   13.7029442220323787    0.0000000000000000
     0.0000000000000000    0.0000000000000000   36.4173130480389986
 C   F   H  
   6   1   5
Cartesian
  8.0978466007656866 -0.0171959754481204 17.5890643591097096
  9.1501487289827885  0.5834233662632443 18.2984002740943765
  7.0496808476572328 -0.6303888245207047 19.6939851493272045
  9.1574657719175327  0.5819801044463249 19.6929591313766039
  8.1054610594739511 -0.0273837162673848 20.3648079638433082
  7.0492864067296646 -0.6220708642514279 18.2980672444345878
  8.1121437154219738 -0.0352910150733162 21.7343316076094517
  8.0355465377129427  0.0281940258297316 16.4987911567889078
  9.9740633259735088  1.0565830146476174 17.7591431600905487
  9.9691153145381044  1.0442584277525619 20.2571531107146079
  6.2397593179352278 -1.0963979887984283 20.2574448759271135
  6.2208295739242647 -1.0904209452512532 17.7626735345792959
