Mo S  C  H                              
   1.00000000000000     
     7.9113985352808234  -13.7029442220323787    0.0000000000000000
     7.9113985352808278   13.7029442220323787    0.0000000000000000
     0.0000000000000000    0.0000000000000000   36.4173130480389986
   Mo   S    C    H 
    75   150     7     8
Direct
  0.1322025927704172  0.0639558293486619  0.5000697122330390
  0.6662556355360719  0.7308720617351158  0.6713172684241870
  0.2651407142600511  0.9289892406469247  0.6695328358457359
  0.2656291555319508  0.9315229535941379  0.3299813038427780
  0.3320818436215561  0.8638947292439622  0.5000223402036317
  0.7321625685847771  0.8639644430588366  0.5001071947616778
  0.6658226802820421  0.9314719258740609  0.3300258933933881
  0.6657899693430570  0.9298112315573446  0.6701965357303438
  0.2651979203971325  0.7294066028253559  0.6702610696109425
  0.2656631112165150  0.7315405341560971  0.3300286031589518
  0.6657273764529023  0.7315054060360245  0.3300670981687599
  0.3322105702391437  0.6639782523229649  0.5000502056250989
  0.2655720541440023  0.5298833250639394  0.6711294366039140
  0.2657048353405597  0.5316041998028797  0.3300233438333716
  0.3321940194254925  0.4640244800412164  0.5000421776345355
  0.8656763219183570  0.1315424262490685  0.3299988204511725
  0.8658529997434088  0.1295774020054812  0.6701971257343098
  0.2666905563011284  0.3298749618840990  0.6707327066321637
  0.2657918965392277  0.3316240213001933  0.3300140684936236
  0.3321187383418649  0.2639677355039130  0.5000896645469510
  0.9321380084703661  0.2639476581603573  0.5000504385855379
  0.7320914245781660  0.0639426426855882  0.5000213063307338
  0.5321783331960401  0.0639948106097213  0.4999857072957640
  0.4656016922948789  0.1314457272419723  0.3300542409555530
  0.4656159499080461  0.1276913059046227  0.6687294385604278
  0.6657162462262397  0.1314358516902266  0.3300511399157519
  0.6657759931780189  0.1291691076413045  0.6695729163909296
  0.4655316194725231  0.9292705161000524  0.6697059405305561
  0.4657144176754806  0.9314908281057178  0.3300662276414423
  0.5321768990090706  0.8638637943095425  0.5000513601135435
  0.7322115207866884  0.2640180566942770  0.5000027074131498
  0.4649476934860515  0.7304238046448367  0.6703689137653456
  0.4657284309823955  0.7315717480427801  0.3300788699600539
  0.5321853584997940  0.6639252188761873  0.5000892524716951
  0.6656260327536614  0.3314248805612446  0.3301205155974317
  0.6644698503079437  0.3274372457693642  0.6691723274349795
  0.4670299759390841  0.5309524042776183  0.6741330628212464
  0.4657111721502066  0.5315813423647019  0.3300736769993279
  0.5320645162460133  0.4639834372481996  0.5000774555507277
  0.7321540889649664  0.4641108445077579  0.5000374535301572
  0.6655982866790013  0.5314209307570418  0.3300995516672581
  0.6638770664839131  0.5291545187788553  0.6730843597117621
  0.4669886273048462  0.3234958695215617  0.6660119979240909
  0.4656654811952747  0.3315065797048954  0.3301100907111724
  0.5321667084936474  0.2640164679770334  0.5000490840555927
  0.7321429315301206  0.6640218322493349  0.5001488705559530
  0.8657073517826306  0.3315307164781873  0.3301049704247394
  0.8656143904065454  0.3293102569356219  0.6702948770378743
  0.9321094961289660  0.0639225441216602  0.5000982101869488
  0.2653661166267950  0.1293128253882808  0.6689934690903692
  0.0650563812248071  0.7292091101090927  0.6703105938146241
  0.0656992063084301  0.7315266548658714  0.3299840185380002
  0.1321833905503029  0.6639374045066664  0.5000796218342012
  0.9322471185412634  0.6639942450985841  0.5001458218501308
  0.8663440531887139  0.7302016331334967  0.6705994826537249
  0.0652760615804708  0.5294277565853661  0.6705585082778945
  0.0657029826148681  0.5315899460858899  0.3300255069567598
  0.8650315455996004  0.5292556634355898  0.6708513607739929
  0.1322721991813121  0.4640413272617466  0.5000652702226044
  0.0658565756556377  0.3294952378108415  0.6706434192938016
  0.0657217145370346  0.3316475969740853  0.3300231744965568
  0.1321451753933952  0.2639859148700350  0.5000928869054886
  0.8657682688682619  0.9314882287291223  0.3300453826723754
  0.8659451905570584  0.9300005401372322  0.6702738674178375
  0.0660341415359083  0.1296878097226450  0.6700658227979558
  0.0657468428047847  0.1316302163041403  0.3300157692701519
  0.9321810487409123  0.8639551722285517  0.5001179962495682
  0.8656425737776938  0.5314309968817001  0.3300698166015471
  0.8656741749164135  0.7314267762569997  0.3300748266056953
  0.2657354715912163  0.1315609701222598  0.3300114088432937
  0.3321024223560291  0.0639127746302412  0.4999831235692503
  0.1321438607968387  0.8639086173294035  0.5000847778946507
  0.9322215480137971  0.4639706181187833  0.5000817248540300
  0.0656415069241332  0.9297251640928701  0.6699481579151980
  0.0656730735885778  0.9314984009654296  0.3300326570606132
  0.6655381563117595  0.9305091636802799  0.4569579800409864
  0.6656544031026937  0.3307905576909436  0.5430839638984511
  0.7323355496059727  0.2646733230900026  0.3731789894661591
  0.7310125849688855  0.2620634612544324  0.7127408152144261
  0.8654274002425403  0.1305406395927969  0.4569599819844922
  0.8655828110997803  0.3307403808319748  0.4569422560972529
  0.9311300385581539  0.6618988949173521  0.6274580773659479
  0.9322769200898847  0.6646968495688856  0.2869915459709551
  0.7324120150229680  0.2648271142133293  0.2870649724616572
  0.7337030557602947  0.2630869599800019  0.6265637704432626
  0.8656299842880341  0.7306922106513333  0.4570579657403923
  0.6655429732700502  0.3308202390097687  0.4569534038939316
  0.9319192127870625  0.2623849289304147  0.7134863016707903
  0.8654541723019933  0.9306046488783015  0.5432031715176906
  0.9323356115455029  0.0648587573993909  0.2869856047809113
  0.9325049478032995  0.0631209599278093  0.6269873990956402
  0.9323814311431687  0.6629641862946768  0.7137251253544414
  0.7329672048685006  0.0626020428905388  0.6268305526696202
  0.7323101356654271  0.0647360852719110  0.2869295412634215
  0.6655713186249878  0.1307426084894056  0.4568692485657594
  0.7321986116617282  0.0633840289029686  0.7130772035138632
  0.7324278586904983  0.0647481864652531  0.3731135924268455
  0.9324070502553742  0.8648115889583343  0.3731795407610661
  0.9334030460105784  0.8641839876943465  0.7133640696335051
  0.8655213265835857  0.9305925706315806  0.4570100653772975
  0.6654764865901506  0.1307200918582395  0.5430999709958525
  0.9323828540258514  0.2647846789601725  0.3731595194317701
  0.9325474638510394  0.6648346643173492  0.3731259969358915
  0.9329728831161357  0.0633411966676945  0.7132228595818920
  0.7325434010914578  0.8647675034581596  0.2869748080215314
  0.7335021202213072  0.8651620205995505  0.7137545428593925
  0.7325082960083762  0.8648434101371374  0.3731832167658454
  0.7319384860196103  0.8620849006775182  0.6273930554589612
  0.8654714844981540  0.5305266582774114  0.5431559099647271
  0.6655062617852212  0.9306575886520342  0.5431683449629706
  0.9325043008870113  0.4649531358492527  0.3731675221460279
  0.9318692431777337  0.4622011927654415  0.7135769463209691
  0.8656818181346961  0.5307508546758155  0.4570177975436676
  0.7306965790617346  0.6610246056457066  0.6287845502497665
  0.7322960177372132  0.6647044480974705  0.2870258742189004
  0.6656030591119009  0.7306748352278403  0.4570418921523847
  0.7354918970550987  0.6660920688577492  0.7142240307000847
  0.7322182266193977  0.6647873312649454  0.3731655625510176
  0.6654112026804647  0.7307019414818703  0.5432806487624953
  0.9323474514108953  0.4647728824268714  0.2870220219084244
  0.9316509249876124  0.4629962744143363  0.6275249207815186
  0.9329433640026871  0.2632029148720205  0.6273146226097083
  0.8654368934897900  0.3305848053063608  0.5431338110664260
  0.9323106097800354  0.2650016166042086  0.2870071998811513
  0.8654847727216618  0.7306592723387568  0.5432247900356115
  0.7305740520894910  0.4653961735392448  0.6281486978743492
  0.7321924099009746  0.4646791259060018  0.2870394355892735
  0.6652577752283089  0.5307788394180641  0.4570156375750625
  0.7316674697060521  0.4602912917867558  0.7140293950696104
  0.7323316468867754  0.4648735139715678  0.3732252740745671
  0.8653182645789605  0.1305676663031839  0.5431389102820903
  0.9323064492528969  0.0648998642692119  0.3730823823627402
  0.6652966087497149  0.5305583269487202  0.5431802075202361
  0.5325309467730227  0.8623643367301704  0.6269051334768733
  0.5322181108580776  0.4648340852572720  0.3732087385244279
  0.4654728155069064  0.9305237724529022  0.4569591091521007
  0.1317561689362510  0.6624608471846239  0.6272623868703551
  0.0655644234018461  0.9306381601664957  0.5431731967402145
  0.1323095630997208  0.8648285596774078  0.3731029926786892
  0.1325928979531990  0.8633480616139273  0.7129721202599237
  0.0654827201473263  0.9305655009432865  0.4569827756863205
  0.1322351498356125  0.8648157430776535  0.2869329668822511
  0.1311556658590211  0.8618000046101398  0.6268687173283765
  0.2655669284477886  0.1305434394721485  0.5431532919283311
  0.1323739891694472  0.6648623992578531  0.2869265815585950
  0.3321869363645595  0.0647484696671710  0.3731176371426275
  0.2655325639080814  0.1307219128566435  0.4569227992150598
  0.3323543964656479  0.0648723986775972  0.2869296468761351
  0.3310671817916496  0.0613046989149670  0.6259604711803086
  0.2655331371247840  0.3307729778756285  0.5431750985361569
  0.3322718996449320  0.2648136960985989  0.3731681930130207
  0.3375478804852005  0.2639878472915080  0.7115704096607329
  0.2654826263442795  0.3306319600880619  0.4570023365352295
  0.3325230429679043  0.2649636235574170  0.2870087780936824
  0.3324395846104497  0.0631189162801902  0.7120010641755453
  0.0655083486094953  0.7306388412994985  0.4570286034646063
  0.1320771381467346  0.6631854135599542  0.7134019520716040
  0.1322874454794978  0.6649299722143319  0.3731046937805358
  0.0654503956281715  0.1305362847050924  0.5431705282608212
  0.1324663108313568  0.0648860622042671  0.3730931151838222
  0.1338591135339308  0.0636345152618673  0.7127711158326042
  0.0654275302265134  0.1305861475906126  0.4570008453091754
  0.1323476053047325  0.0648393412226103  0.2869816505733147
  0.1310949860410596  0.0623429412910058  0.6265193254170129
  0.0654845798638681  0.3307218673041327  0.5431655303080182
  0.1325222084570589  0.2651123679337327  0.3731016234323431
  0.1328519779679786  0.2622578638220996  0.7135091758665221
  0.0655108294006444  0.3306576991831512  0.4569944819204600
  0.1324265566164323  0.2650611069494990  0.2869605379180000
  0.1333109855187067  0.2640463149488888  0.6274530771056920
  0.0655559795612589  0.5306390395103664  0.5431775057054561
  0.1323932696112821  0.4649638970717850  0.3731264742325930
  0.1314217866818411  0.4626281595346168  0.7138324513754664
  0.0655454723327167  0.5307123043551730  0.4569784494509823
  0.1323327938822090  0.4650039598081385  0.2869454049167385
  0.1328590285358811  0.4630645674993731  0.6276920483572240
  0.0656476643262227  0.7305989314851332  0.5432344345453224
  0.3291110569940167  0.2623218510360493  0.6254149947636644
  0.2656716263303230  0.5307634114599402  0.5431726598455483
  0.3324226965433335  0.4649341593557627  0.3731259021687643
  0.3296613665282893  0.4616101503752757  0.7147450974938910
  0.5303995238298788  0.2606140962841467  0.7116339738887429
  0.4654273678992973  0.3306542135547142  0.4569824462425761
  0.5323145110559374  0.2648286962001103  0.2870578570323616
  0.5340912707135864  0.2589676859939972  0.6243618234141629
  0.4654181307987150  0.5305829854498020  0.5431574470726406
  0.9323080381581734  0.8646689716420104  0.2870014834329302
  0.4654937759136597  0.5306662252725272  0.4569599394993206
  0.5322569385684545  0.4648712862491765  0.2870460984560778
  0.5329478132481759  0.4662590412630613  0.6289564015664705
  0.4654794156929675  0.7304583999647167  0.5431908992849622
  0.5323413446917038  0.6648727247483176  0.3731555820671308
  0.5323734245920948  0.6689481956683502  0.7140445513415833
  0.4655878167322691  0.7305408635383011  0.4569430132654345
  0.5324557144174473  0.6648992158027880  0.2870173809317125
  0.5318338766642826  0.6607509751801910  0.6288100502469847
  0.4654723718206266  0.9305914969189345  0.5430924583161076
  0.5326121491147775  0.8649417061052126  0.3731817061442724
  0.5322820056305548  0.8643451029591114  0.7131616329625380
  0.5321773432245359  0.2646183263467798  0.3732012821489947
  0.5324345371235286  0.8648627788507881  0.2870102382036419
  0.4654345414323234  0.3306136518907459  0.5431828359113274
  0.5324418034608595  0.0649425787018369  0.2870293691797003
  0.2656125407689763  0.5307059453358660  0.4569219701496280
  0.3325165237625310  0.4650562627929670  0.2869623739169198
  0.3362505063188750  0.4652639361295073  0.6291565361816306
  0.2654360382146821  0.7305337679626248  0.5431632857503276
  0.3322334415608974  0.6648673204973121  0.3731768247691230
  0.3318904692906307  0.6640451939885824  0.7137304500690067
  0.2653402989012932  0.7305407650505407  0.4569402994931813
  0.3324378094425490  0.6649303562711725  0.2870022609053337
  0.3315381599457402  0.6618953192498502  0.6273376997186992
  0.2654442660194669  0.9305857887257015  0.5431319568553625
  0.3321689072883981  0.8648928393239843  0.3731463289735104
  0.3322319343341091  0.8635730329328830  0.7128512478421626
  0.2652723461533811  0.9305370106682828  0.4569176946781133
  0.3324003889606833  0.8648767026299331  0.2869689827131128
  0.3317092796791325  0.8617093426510095  0.6267308135423569
  0.4653427660138342  0.1305406502876596  0.5430299880500151
  0.5323743298228054  0.0648655116181706  0.3731447910959582
  0.5323416309477158  0.0629474715645024  0.7124868657640033
  0.4655425055540663  0.1308165452185274  0.4568991548955773
  0.5329235369634941  0.0610922700031672  0.6261129688412586
  0.9318022640636098  0.8625112079632340  0.6270804153422945
  0.5334126512511324  0.4829649323730348  0.7299413354547686
  0.5442030148200188  0.5281369963658156  0.7761416350116097
  0.5987959687455910  0.6228089766491970  0.7905277605544626
  0.5099217070139060  0.4631722096314093  0.8383314137624724
  0.6078371836106135  0.6362843823729097  0.8284860313692450
  0.5643135993040703  0.5574365923135891  0.8529996787962884
  0.5002409002950763  0.4484217460494608  0.8005657066386295
  0.5781936755667362  0.5730179252628160  0.8938027289025525
  0.6506263886159209  0.7104443715080904  0.8393210548430956
  0.4754522690604271  0.4001525001111321  0.8567172791686900
  0.4594248860689333  0.3742566492178416  0.7895064364841301
  0.6353502403479790  0.6863263246819533  0.7726658939646279
  0.6446223307415904  0.5725201012307811  0.9026837381507051
  0.5864458229407316  0.6436611833583537  0.9019461524169206
  0.5164411290321406  0.5148921333064203  0.9090260666145122
  0.5579889065797415  0.4145295589908811  0.6925841196897210
 
  0.00000000E+00  0.00000000E+00  0.00000000E+00
  0.00000000E+00  0.00000000E+00  0.00000000E+00
  0.00000000E+00  0.00000000E+00  0.00000000E+00
  0.00000000E+00  0.00000000E+00  0.00000000E+00
  0.00000000E+00  0.00000000E+00  0.00000000E+00
  0.00000000E+00  0.00000000E+00  0.00000000E+00
  0.00000000E+00  0.00000000E+00  0.00000000E+00
  0.00000000E+00  0.00000000E+00  0.00000000E+00
  0.00000000E+00  0.00000000E+00  0.00000000E+00
  0.00000000E+00  0.00000000E+00  0.00000000E+00
  0.00000000E+00  0.00000000E+00  0.00000000E+00
  0.00000000E+00  0.00000000E+00  0.00000000E+00
  0.00000000E+00  0.00000000E+00  0.00000000E+00
  0.00000000E+00  0.00000000E+00  0.00000000E+00
  0.00000000E+00  0.00000000E+00  0.00000000E+00
  0.00000000E+00  0.00000000E+00  0.00000000E+00
  0.00000000E+00  0.00000000E+00  0.00000000E+00
  0.00000000E+00  0.00000000E+00  0.00000000E+00
  0.00000000E+00  0.00000000E+00  0.00000000E+00
  0.00000000E+00  0.00000000E+00  0.00000000E+00
  0.00000000E+00  0.00000000E+00  0.00000000E+00
  0.00000000E+00  0.00000000E+00  0.00000000E+00
  0.00000000E+00  0.00000000E+00  0.00000000E+00
  0.00000000E+00  0.00000000E+00  0.00000000E+00
  0.00000000E+00  0.00000000E+00  0.00000000E+00
  0.00000000E+00  0.00000000E+00  0.00000000E+00
  0.00000000E+00  0.00000000E+00  0.00000000E+00
  0.00000000E+00  0.00000000E+00  0.00000000E+00
  0.00000000E+00  0.00000000E+00  0.00000000E+00
  0.00000000E+00  0.00000000E+00  0.00000000E+00
  0.00000000E+00  0.00000000E+00  0.00000000E+00
  0.00000000E+00  0.00000000E+00  0.00000000E+00
  0.00000000E+00  0.00000000E+00  0.00000000E+00
  0.00000000E+00  0.00000000E+00  0.00000000E+00
  0.00000000E+00  0.00000000E+00  0.00000000E+00
  0.00000000E+00  0.00000000E+00  0.00000000E+00
  0.00000000E+00  0.00000000E+00  0.00000000E+00
  0.00000000E+00  0.00000000E+00  0.00000000E+00
  0.00000000E+00  0.00000000E+00  0.00000000E+00
  0.00000000E+00  0.00000000E+00  0.00000000E+00
  0.00000000E+00  0.00000000E+00  0.00000000E+00
  0.00000000E+00  0.00000000E+00  0.00000000E+00
  0.00000000E+00  0.00000000E+00  0.00000000E+00
  0.00000000E+00  0.00000000E+00  0.00000000E+00
  0.00000000E+00  0.00000000E+00  0.00000000E+00
  0.00000000E+00  0.00000000E+00  0.00000000E+00
  0.00000000E+00  0.00000000E+00  0.00000000E+00
  0.00000000E+00  0.00000000E+00  0.00000000E+00
  0.00000000E+00  0.00000000E+00  0.00000000E+00
  0.00000000E+00  0.00000000E+00  0.00000000E+00
  0.00000000E+00  0.00000000E+00  0.00000000E+00
  0.00000000E+00  0.00000000E+00  0.00000000E+00
  0.00000000E+00  0.00000000E+00  0.00000000E+00
  0.00000000E+00  0.00000000E+00  0.00000000E+00
  0.00000000E+00  0.00000000E+00  0.00000000E+00
  0.00000000E+00  0.00000000E+00  0.00000000E+00
  0.00000000E+00  0.00000000E+00  0.00000000E+00
  0.00000000E+00  0.00000000E+00  0.00000000E+00
  0.00000000E+00  0.00000000E+00  0.00000000E+00
  0.00000000E+00  0.00000000E+00  0.00000000E+00
  0.00000000E+00  0.00000000E+00  0.00000000E+00
  0.00000000E+00  0.00000000E+00  0.00000000E+00
  0.00000000E+00  0.00000000E+00  0.00000000E+00
  0.00000000E+00  0.00000000E+00  0.00000000E+00
  0.00000000E+00  0.00000000E+00  0.00000000E+00
  0.00000000E+00  0.00000000E+00  0.00000000E+00
  0.00000000E+00  0.00000000E+00  0.00000000E+00
  0.00000000E+00  0.00000000E+00  0.00000000E+00
  0.00000000E+00  0.00000000E+00  0.00000000E+00
  0.00000000E+00  0.00000000E+00  0.00000000E+00
  0.00000000E+00  0.00000000E+00  0.00000000E+00
  0.00000000E+00  0.00000000E+00  0.00000000E+00
  0.00000000E+00  0.00000000E+00  0.00000000E+00
  0.00000000E+00  0.00000000E+00  0.00000000E+00
  0.00000000E+00  0.00000000E+00  0.00000000E+00
  0.00000000E+00  0.00000000E+00  0.00000000E+00
  0.00000000E+00  0.00000000E+00  0.00000000E+00
  0.00000000E+00  0.00000000E+00  0.00000000E+00
  0.00000000E+00  0.00000000E+00  0.00000000E+00
  0.00000000E+00  0.00000000E+00  0.00000000E+00
  0.00000000E+00  0.00000000E+00  0.00000000E+00
  0.00000000E+00  0.00000000E+00  0.00000000E+00
  0.00000000E+00  0.00000000E+00  0.00000000E+00
  0.00000000E+00  0.00000000E+00  0.00000000E+00
  0.00000000E+00  0.00000000E+00  0.00000000E+00
  0.00000000E+00  0.00000000E+00  0.00000000E+00
  0.00000000E+00  0.00000000E+00  0.00000000E+00
  0.00000000E+00  0.00000000E+00  0.00000000E+00
  0.00000000E+00  0.00000000E+00  0.00000000E+00
  0.00000000E+00  0.00000000E+00  0.00000000E+00
  0.00000000E+00  0.00000000E+00  0.00000000E+00
  0.00000000E+00  0.00000000E+00  0.00000000E+00
  0.00000000E+00  0.00000000E+00  0.00000000E+00
  0.00000000E+00  0.00000000E+00  0.00000000E+00
  0.00000000E+00  0.00000000E+00  0.00000000E+00
  0.00000000E+00  0.00000000E+00  0.00000000E+00
  0.00000000E+00  0.00000000E+00  0.00000000E+00
  0.00000000E+00  0.00000000E+00  0.00000000E+00
  0.00000000E+00  0.00000000E+00  0.00000000E+00
  0.00000000E+00  0.00000000E+00  0.00000000E+00
  0.00000000E+00  0.00000000E+00  0.00000000E+00
  0.00000000E+00  0.00000000E+00  0.00000000E+00
  0.00000000E+00  0.00000000E+00  0.00000000E+00
  0.00000000E+00  0.00000000E+00  0.00000000E+00
  0.00000000E+00  0.00000000E+00  0.00000000E+00
  0.00000000E+00  0.00000000E+00  0.00000000E+00
  0.00000000E+00  0.00000000E+00  0.00000000E+00
  0.00000000E+00  0.00000000E+00  0.00000000E+00
  0.00000000E+00  0.00000000E+00  0.00000000E+00
  0.00000000E+00  0.00000000E+00  0.00000000E+00
  0.00000000E+00  0.00000000E+00  0.00000000E+00
  0.00000000E+00  0.00000000E+00  0.00000000E+00
  0.00000000E+00  0.00000000E+00  0.00000000E+00
  0.00000000E+00  0.00000000E+00  0.00000000E+00
  0.00000000E+00  0.00000000E+00  0.00000000E+00
  0.00000000E+00  0.00000000E+00  0.00000000E+00
  0.00000000E+00  0.00000000E+00  0.00000000E+00
  0.00000000E+00  0.00000000E+00  0.00000000E+00
  0.00000000E+00  0.00000000E+00  0.00000000E+00
  0.00000000E+00  0.00000000E+00  0.00000000E+00
  0.00000000E+00  0.00000000E+00  0.00000000E+00
  0.00000000E+00  0.00000000E+00  0.00000000E+00
  0.00000000E+00  0.00000000E+00  0.00000000E+00
  0.00000000E+00  0.00000000E+00  0.00000000E+00
  0.00000000E+00  0.00000000E+00  0.00000000E+00
  0.00000000E+00  0.00000000E+00  0.00000000E+00
  0.00000000E+00  0.00000000E+00  0.00000000E+00
  0.00000000E+00  0.00000000E+00  0.00000000E+00
  0.00000000E+00  0.00000000E+00  0.00000000E+00
  0.00000000E+00  0.00000000E+00  0.00000000E+00
  0.00000000E+00  0.00000000E+00  0.00000000E+00
  0.00000000E+00  0.00000000E+00  0.00000000E+00
  0.00000000E+00  0.00000000E+00  0.00000000E+00
  0.00000000E+00  0.00000000E+00  0.00000000E+00
  0.00000000E+00  0.00000000E+00  0.00000000E+00
  0.00000000E+00  0.00000000E+00  0.00000000E+00
  0.00000000E+00  0.00000000E+00  0.00000000E+00
  0.00000000E+00  0.00000000E+00  0.00000000E+00
  0.00000000E+00  0.00000000E+00  0.00000000E+00
  0.00000000E+00  0.00000000E+00  0.00000000E+00
  0.00000000E+00  0.00000000E+00  0.00000000E+00
  0.00000000E+00  0.00000000E+00  0.00000000E+00
  0.00000000E+00  0.00000000E+00  0.00000000E+00
  0.00000000E+00  0.00000000E+00  0.00000000E+00
  0.00000000E+00  0.00000000E+00  0.00000000E+00
  0.00000000E+00  0.00000000E+00  0.00000000E+00
  0.00000000E+00  0.00000000E+00  0.00000000E+00
  0.00000000E+00  0.00000000E+00  0.00000000E+00
  0.00000000E+00  0.00000000E+00  0.00000000E+00
  0.00000000E+00  0.00000000E+00  0.00000000E+00
  0.00000000E+00  0.00000000E+00  0.00000000E+00
  0.00000000E+00  0.00000000E+00  0.00000000E+00
  0.00000000E+00  0.00000000E+00  0.00000000E+00
  0.00000000E+00  0.00000000E+00  0.00000000E+00
  0.00000000E+00  0.00000000E+00  0.00000000E+00
  0.00000000E+00  0.00000000E+00  0.00000000E+00
  0.00000000E+00  0.00000000E+00  0.00000000E+00
  0.00000000E+00  0.00000000E+00  0.00000000E+00
  0.00000000E+00  0.00000000E+00  0.00000000E+00
  0.00000000E+00  0.00000000E+00  0.00000000E+00
  0.00000000E+00  0.00000000E+00  0.00000000E+00
  0.00000000E+00  0.00000000E+00  0.00000000E+00
  0.00000000E+00  0.00000000E+00  0.00000000E+00
  0.00000000E+00  0.00000000E+00  0.00000000E+00
  0.00000000E+00  0.00000000E+00  0.00000000E+00
  0.00000000E+00  0.00000000E+00  0.00000000E+00
  0.00000000E+00  0.00000000E+00  0.00000000E+00
  0.00000000E+00  0.00000000E+00  0.00000000E+00
  0.00000000E+00  0.00000000E+00  0.00000000E+00
  0.00000000E+00  0.00000000E+00  0.00000000E+00
  0.00000000E+00  0.00000000E+00  0.00000000E+00
  0.00000000E+00  0.00000000E+00  0.00000000E+00
  0.00000000E+00  0.00000000E+00  0.00000000E+00
  0.00000000E+00  0.00000000E+00  0.00000000E+00
  0.00000000E+00  0.00000000E+00  0.00000000E+00
  0.00000000E+00  0.00000000E+00  0.00000000E+00
  0.00000000E+00  0.00000000E+00  0.00000000E+00
  0.00000000E+00  0.00000000E+00  0.00000000E+00
  0.00000000E+00  0.00000000E+00  0.00000000E+00
  0.00000000E+00  0.00000000E+00  0.00000000E+00
  0.00000000E+00  0.00000000E+00  0.00000000E+00
  0.00000000E+00  0.00000000E+00  0.00000000E+00
  0.00000000E+00  0.00000000E+00  0.00000000E+00
  0.00000000E+00  0.00000000E+00  0.00000000E+00
  0.00000000E+00  0.00000000E+00  0.00000000E+00
  0.00000000E+00  0.00000000E+00  0.00000000E+00
  0.00000000E+00  0.00000000E+00  0.00000000E+00
  0.00000000E+00  0.00000000E+00  0.00000000E+00
  0.00000000E+00  0.00000000E+00  0.00000000E+00
  0.00000000E+00  0.00000000E+00  0.00000000E+00
  0.00000000E+00  0.00000000E+00  0.00000000E+00
  0.00000000E+00  0.00000000E+00  0.00000000E+00
  0.00000000E+00  0.00000000E+00  0.00000000E+00
  0.00000000E+00  0.00000000E+00  0.00000000E+00
  0.00000000E+00  0.00000000E+00  0.00000000E+00
  0.00000000E+00  0.00000000E+00  0.00000000E+00
  0.00000000E+00  0.00000000E+00  0.00000000E+00
  0.00000000E+00  0.00000000E+00  0.00000000E+00
  0.00000000E+00  0.00000000E+00  0.00000000E+00
  0.00000000E+00  0.00000000E+00  0.00000000E+00
  0.00000000E+00  0.00000000E+00  0.00000000E+00
  0.00000000E+00  0.00000000E+00  0.00000000E+00
  0.00000000E+00  0.00000000E+00  0.00000000E+00
  0.00000000E+00  0.00000000E+00  0.00000000E+00
  0.00000000E+00  0.00000000E+00  0.00000000E+00
  0.00000000E+00  0.00000000E+00  0.00000000E+00
  0.00000000E+00  0.00000000E+00  0.00000000E+00
  0.00000000E+00  0.00000000E+00  0.00000000E+00
  0.00000000E+00  0.00000000E+00  0.00000000E+00
  0.00000000E+00  0.00000000E+00  0.00000000E+00
  0.00000000E+00  0.00000000E+00  0.00000000E+00
  0.00000000E+00  0.00000000E+00  0.00000000E+00
  0.00000000E+00  0.00000000E+00  0.00000000E+00
  0.00000000E+00  0.00000000E+00  0.00000000E+00
  0.00000000E+00  0.00000000E+00  0.00000000E+00
  0.00000000E+00  0.00000000E+00  0.00000000E+00
  0.00000000E+00  0.00000000E+00  0.00000000E+00
  0.00000000E+00  0.00000000E+00  0.00000000E+00
  0.00000000E+00  0.00000000E+00  0.00000000E+00
  0.00000000E+00  0.00000000E+00  0.00000000E+00
  0.00000000E+00  0.00000000E+00  0.00000000E+00
  0.00000000E+00  0.00000000E+00  0.00000000E+00
  0.00000000E+00  0.00000000E+00  0.00000000E+00
  0.00000000E+00  0.00000000E+00  0.00000000E+00
  0.00000000E+00  0.00000000E+00  0.00000000E+00
  0.00000000E+00  0.00000000E+00  0.00000000E+00
  0.00000000E+00  0.00000000E+00  0.00000000E+00
  0.00000000E+00  0.00000000E+00  0.00000000E+00
  0.00000000E+00  0.00000000E+00  0.00000000E+00
  0.00000000E+00  0.00000000E+00  0.00000000E+00
  0.00000000E+00  0.00000000E+00  0.00000000E+00
  0.00000000E+00  0.00000000E+00  0.00000000E+00
  0.00000000E+00  0.00000000E+00  0.00000000E+00
  0.00000000E+00  0.00000000E+00  0.00000000E+00
  0.00000000E+00  0.00000000E+00  0.00000000E+00
  0.00000000E+00  0.00000000E+00  0.00000000E+00
  0.00000000E+00  0.00000000E+00  0.00000000E+00
  0.00000000E+00  0.00000000E+00  0.00000000E+00
  0.00000000E+00  0.00000000E+00  0.00000000E+00
  0.00000000E+00  0.00000000E+00  0.00000000E+00
