 C  H  N  S                             
   1.00000000000000     
     7.9113985352808234  -13.7029442220323787    0.0000000000000000
     7.9113985352808278   13.7029442220323787    0.0000000000000000
     0.0000000000000000    0.0000000000000000   36.4173130480389986
   C    H    N    S 
     6     7     1     1
Direct
  0.5017801071849350  0.5014491182391447  0.4744260697635599
  0.5409431318747603  0.5882328067032051  0.4947295858845113
  0.4572646629400828  0.4101389854581329  0.5315926334402367
  0.5394932801991834  0.5864274141050775  0.5329344642667322
  0.4976392386551279  0.4971909509627737  0.5520173338277348
  0.4593898430227696  0.4124921989698901  0.4933853380070225
  0.5708144030169063  0.6548991642416712  0.5483226539565361
  0.4242065600970332  0.3399993256762394  0.5458940627022164
  0.4279004316057681  0.3443997185184272  0.4778606492289300
  0.5728627459496974  0.6579450935440727  0.4802661615122995
  0.5907904427959184  0.5171830801064327  0.4197899518269562
  0.5083935375334914  0.5556931506821677  0.6033332223827081
  0.4501685378924995  0.4321020222368851  0.6024513124195171
  0.4997607387856804  0.4953032690268108  0.5901797179131247
  0.5001658626860188  0.5034943091640484  0.4254794099886756
 
  0.00000000E+00  0.00000000E+00  0.00000000E+00
  0.00000000E+00  0.00000000E+00  0.00000000E+00
  0.00000000E+00  0.00000000E+00  0.00000000E+00
  0.00000000E+00  0.00000000E+00  0.00000000E+00
  0.00000000E+00  0.00000000E+00  0.00000000E+00
  0.00000000E+00  0.00000000E+00  0.00000000E+00
  0.00000000E+00  0.00000000E+00  0.00000000E+00
  0.00000000E+00  0.00000000E+00  0.00000000E+00
  0.00000000E+00  0.00000000E+00  0.00000000E+00
  0.00000000E+00  0.00000000E+00  0.00000000E+00
  0.00000000E+00  0.00000000E+00  0.00000000E+00
  0.00000000E+00  0.00000000E+00  0.00000000E+00
  0.00000000E+00  0.00000000E+00  0.00000000E+00
  0.00000000E+00  0.00000000E+00  0.00000000E+00
  0.00000000E+00  0.00000000E+00  0.00000000E+00
