C  H  Mo N  S                           
   1.00000000000000     
     7.9113990000000003  -13.7029440000000005    0.0000000000000000
     7.9113990000000003   13.7029440000000005    0.0000000000000000
     0.0000000000000000    0.0000000000000000   36.4173130000000000
   C    H    Mo   N    S 
     6     7    75     1   150
Direct
  0.5555891088022449  0.5432897254499451  0.7741631294626146
  0.6358621588350530  0.5502444351851068  0.7935631125880960
  0.4993254975246515  0.5812409019841738  0.8303779710458556
  0.6479998573922359  0.5726687120406311  0.8307143075942562
  0.5793553919728964  0.5877924421367524  0.8499039080156194
  0.4878008347256468  0.5599667100554839  0.7930712204519139
  0.5493121593670480  0.6325546689233619  0.8988731334138578
  0.6537064335144933  0.6260025773651137  0.8990566672312497
  0.6881082560623497  0.5354785413446166  0.7794541530295689
  0.5540103548978763  0.4123225819141112  0.6930925810556801
  0.4445725739110316  0.5913448479328025  0.8449454608795293
  0.4240558984324281  0.5534921220642062  0.7789001853363686
  0.7102286585672815  0.5765032493679385  0.8453191517148539
  0.7314271532928416  0.6632764865553682  0.5001343791720814
  0.8651209854699573  0.3299355111456563  0.3300459886299905
  0.8647950249685721  0.3278959958487349  0.6700168995059883
  0.9315627351731166  0.0633958266214165  0.5001235333965042
  0.2644385020188125  0.1277312205354519  0.6689793827406874
  0.0641764596584764  0.7276699129064284  0.6700488323596900
  0.1314830062575965  0.4632913557771658  0.5000197316651906
  0.1313508423241174  0.6631969961750315  0.5000151792999787
  0.9313439223110720  0.6632929822910114  0.5000783601159213
  0.8652144797135719  0.7286151594390731  0.6704357546615114
  0.0643353817619143  0.5279961614261239  0.6702942436969010
  0.0651342944812683  0.5298817239994591  0.3300603631957557
  0.8640644616669988  0.5276323330114963  0.6705357468295645
  0.0651785721538545  0.7298458484585879  0.3300276776137494
  0.0651606777169036  0.3299162116055143  0.3300403402671961
  0.1315524628135023  0.2633835783426335  0.5000704989953277
  0.8650308871424457  0.9298955100649735  0.3300253373901043
  0.8653778898395217  0.9287091705520893  0.6699829866185496
  0.0653091586455830  0.1282443345336333  0.6698897454479606
  0.5315525343568694  0.2631899220660117  0.5000322429825346
  0.9314083426814790  0.8634008280735941  0.5001437146378365
  0.8651467090803280  0.5299311218810203  0.3300716016801886
  0.8650745138122318  0.7299266442648431  0.3300281498652424
  0.2650025219280394  0.1299561179558708  0.3300042368650651
  0.3314701384597072  0.0631406528544787  0.4999433788186423
  0.1313683155782570  0.8632620304975447  0.5000128734948319
  0.9314245936879004  0.4632133162747749  0.5000003610018666
  0.0647876489341996  0.9280640898095527  0.6697241988010916
  0.0650882249169911  0.9297776481204494  0.3299981480066165
  0.0651415917249807  0.3281847586933822  0.6704036212905393
  0.0650284442102489  0.1297927752585863  0.3300737665727098
  0.1315764936580877  0.0633980191113466  0.5000375237156689
  0.6625679915039129  0.5280541812481019  0.6732335015133444
  0.2650501227718820  0.3299977468475888  0.3300417786967884
  0.2658940098996183  0.3283086205746528  0.6706820468772676
  0.8652328752560763  0.1282904120952182  0.6699016065347720
  0.8650869980938012  0.1299048490813774  0.3300303057233975
  0.3315838995662190  0.4633441061425358  0.5000077564874701
  0.2651881441193211  0.5300405380688460  0.3299772133328389
  0.2647048021607503  0.5287005714710418  0.6709022486397913
  0.3314701269105740  0.6631659835412975  0.5000391537151359
  0.3315713984270161  0.2632140522340549  0.5000714033306153
  0.6650465202496605  0.7300194260260042  0.3299797186096782
  0.2645620758551317  0.7280343248954608  0.6700631112364448
  0.6654117432835349  0.9285282828747938  0.6698641170061634
  0.6650698396237402  0.9300593198487803  0.3300551851266960
  0.7314849742730658  0.8632748967594139  0.5001613525257511
  0.3313046680910716  0.8630765290976399  0.4999870152872887
  0.2651477389080341  0.9300125716429406  0.3300157953221685
  0.2642788607987328  0.9273426607091508  0.6693871469167263
  0.6658159050343571  0.7297957701003313  0.6710316483245293
  0.2651167006144846  0.7299747739591851  0.3300144278410500
  0.4660598657146835  0.3214601835550823  0.6661806843797748
  0.9314494261148525  0.2632362890746904  0.5000108497497280
  0.5314613858765256  0.0630622707542940  0.4999724365871856
  0.6650250589260409  0.5299988626469343  0.3300356960711568
  0.7314252311346934  0.4632705787748748  0.5000067790567329
  0.5314555712952256  0.4632186251124537  0.5000367428916661
  0.4650950041857342  0.5299810161384784  0.3300308255035915
  0.4668654079325592  0.5303617624239862  0.6745600410025858
  0.6634388717479780  0.3254892047938114  0.6691370624969437
  0.6650573318032755  0.3299829546739730  0.3300063717155766
  0.5315092644379078  0.6632001863409656  0.5000895209106346
  0.7314843117877743  0.0631927706988904  0.5000535793071279
  0.4651240798467882  0.7300536078076760  0.3300117223988295
  0.7314798737091834  0.2632291255530603  0.4999787520157142
  0.5314185292123099  0.8630147110195878  0.5000521916962555
  0.4651218221293405  0.9301104910230080  0.3301226830227506
  0.4648903529053996  0.9276655125660440  0.6695398569844642
  0.6649685787763460  0.1275315146940699  0.6694524246959332
  0.6651719524089970  0.1301300192304922  0.3300583779641784
  0.4647130430051263  0.1259801365628448  0.6687513080435181
  0.4650882123914855  0.1301075483675689  0.3300255212467675
  0.4648473401671041  0.7291635472396294  0.6703670230103285
  0.4650414894985744  0.3300126642063574  0.3300132564787361
  0.5877255890595521  0.6038405157613909  0.8873639197400109
  0.9316899075727960  0.0632075362891200  0.2869988411366009
  0.4648470815496282  0.5299038862645702  0.5431366626988137
  0.9317092238264948  0.8632531090562026  0.2869758729948870
  0.4649390227394008  0.5300158815459852  0.4569358065290103
  0.5316849924413631  0.4633026859948473  0.2869720300115404
  0.5316928501214235  0.4647625123895551  0.6293050345069986
  0.4647409705625734  0.7296615928571484  0.5431973882677070
  0.5331420559700959  0.2571762026100970  0.6244203569943281
  0.5317786551946710  0.6633620435157113  0.3731059284786298
  0.4648526157805151  0.7297072891840770  0.4569384359905939
  0.5315993833292652  0.6632775208774149  0.2869445532084711
  0.5309404894631911  0.6589389131927348  0.6287954929193589
  0.4646493250810053  0.9296612295874453  0.5430580280615445
  0.5317316746788023  0.8632616173333361  0.3731859503880557
  0.5321922555081358  0.8631144717672115  0.7129878588370744
  0.5337753056299874  0.6691805206468970  0.7142617918394905
  0.5317107436665651  0.2633976715447091  0.2869333971599701
  0.4648751419725627  0.3298573238728437  0.4569614454706254
  0.5298553424956580  0.2586703926184555  0.7117310194115376
  0.1317585977688864  0.2607466965589040  0.7133065509779186
  0.0648230159202399  0.3299665567598211  0.4569313334946088
  0.1317132069586080  0.2631369018620831  0.2870105394963218
  0.1329798937550066  0.2627659985243938  0.6272940852177769
  0.0646953310465364  0.5298955835084911  0.5430991114256756
  0.1320143565972316  0.4633953532765744  0.3731043101601799
  0.1305012652823692  0.4613603654193454  0.7135992038165497
  0.0647429909839019  0.5299591528749872  0.4569213518110118
  0.1318325949921118  0.4632767044050894  0.2869636802552904
  0.1321273230147426  0.4617250590133750  0.6274915414923541
  0.0647349976546536  0.7298985036312260  0.5431126658540606
  0.3283416580535032  0.2607815675203895  0.6253961978450704
  0.2648557044199151  0.5299201526481028  0.5431419982932866
  0.3317526867422700  0.4634877991036674  0.3731214900684421
  0.3277952867425213  0.4600591248010346  0.7144960761714643
  0.5317627996668222  0.2634883605041267  0.3731160434784755
  0.5317099106290968  0.8634847119941469  0.2870247140058098
  0.4649996159304308  0.3298804959008734  0.5431945198992238
  0.5318242217853140  0.0634410039644706  0.2870347778339664
  0.5319192830870634  0.0595785338351646  0.6260341935482714
  0.9308394333791910  0.8608256382506170  0.6268452150426356
  0.5327907739836490  0.4822962461987004  0.7308648914445897
  0.6647943764843873  0.3299645107082014  0.4568994060014475
  0.8647412067785751  0.7302825479397370  0.4570367827413619
  0.7326297562878565  0.2612670945667404  0.6264126823979836
  0.7318782086220565  0.2634445196269724  0.2869613770256407
  0.9318593832313127  0.6632772269304965  0.2870034093187925
  0.9300638014070728  0.6604142754184892  0.6272241534041783
  0.8647948269742258  0.3299081245859412  0.4568834548897485
  0.8648088190998706  0.1297739539688507  0.4569280175560095
  0.7304662899154124  0.2603717054875361  0.7126026545323825
  0.7318296191619638  0.2635131404864026  0.3731532816727352
  0.6649883983986058  0.3300488128812162  0.5430907259935722
  0.6648886896187278  0.9298279735236576  0.4570138507221628
  0.4649732783960161  0.1299216449149156  0.4568744911451361
  0.1317137498446428  0.2631562501155287  0.3731839185227770
  0.5313092625919822  0.0608873692484622  0.7123906475759938
  0.4647216578518751  0.1296572402390552  0.5430160456816751
  0.2648710584361353  0.5299747511836017  0.4569012223129363
  0.3318885223336636  0.4633604828548954  0.2869401058945442
  0.3358354637287277  0.4640437399673232  0.6291906635154163
  0.2646586521196141  0.7297347492175916  0.5431023802807076
  0.3318572614485475  0.6633452969055682  0.3730902963556417
  0.3314045091430557  0.6627775087650249  0.7135725761470013
  0.2646351923774262  0.7297059173740337  0.4569144783704644
  0.3317878362589894  0.6633844041531134  0.2869305439198371
  0.3314563494947791  0.6609031977709918  0.6272607558003500
  0.2647006098892533  0.9298983085832049  0.5430643441022553
  0.3316179694150776  0.8632051503241769  0.3731685034100494
  0.3315907794170485  0.8620323441708422  0.7126788658593952
  0.2646479115069482  0.9298379355737154  0.4568837480482344
  0.3319048300371392  0.8634629511426368  0.2870047198515522
  0.3310965864347892  0.8603703082661482  0.6265561389418579
  0.5318986076390857  0.0636937658887788  0.3731980400150192
  0.0647355214621115  0.3300498153777980  0.5431307957248208
  0.1303736672633065  0.0607991703990365  0.6264050635214957
  0.1316410204066827  0.0631148121264999  0.2869963864423184
  0.6646806696564056  0.9298821036905380  0.5431910762483625
  0.9317471536786641  0.4631243491614967  0.3731953035293856
  0.9308386089927367  0.4606882718865961  0.7133189557568684
  0.8648039345276572  0.5299990169324857  0.4569794022114522
  0.7296381300958359  0.6590886280938406  0.6285740689328136
  0.7317348971309556  0.6633354395931477  0.2869456452805679
  0.6648963737291425  0.7300261846030907  0.4570492104370416
  0.7344402370957113  0.6654045441423690  0.7141364717862118
  0.7316900612259900  0.6634079612991499  0.3731150911105914
  0.6646913375902130  0.7298513545007879  0.5432615499762150
  0.9311807106891123  0.2610251880322210  0.7131902160550823
  0.9307428736639949  0.4616048951591480  0.6271529568217886
  0.9323978796564418  0.2620527523003560  0.6270253065663454
  0.8647687007759046  0.3299191016785201  0.5430743895422694
  0.9318293173140120  0.2632611007943026  0.2869871032780154
  0.8646652481344574  0.5297359206245815  0.5431013842874037
  0.8647627878197852  0.7299769828774103  0.5432351456838163
  0.7315987546280809  0.8609150997783530  0.6270020033322012
  0.7331984551428832  0.8640958269273753  0.7134545463788484
  0.9320482734772071  0.0619223661689716  0.6267800996897748
  0.9314343577734405  0.6612011514486227  0.7134314508517505
  0.7323484773951847  0.0613798995999488  0.6265575005824218
  0.7318266461295480  0.0634512484812433  0.2869792884873945
  0.6648540294282199  0.1298258816163624  0.4569025955832728
  0.7317195746168892  0.0617812942533149  0.7127842203502581
  0.7318551253071419  0.0634060917625447  0.3731395031219478
  0.9318361885529285  0.8633430253970644  0.3731348029999566
  0.9326012788640483  0.8627512392386052  0.7131170146311661
  0.8648032583427039  0.9301415866219287  0.4570561561466135
  0.6647520003230980  0.1298910555891482  0.5430750197649274
  0.9317553676656729  0.2631648163730063  0.3730886443824062
  0.9318841617555194  0.6633612061741871  0.3731322320715833
  0.9322974030095850  0.0621022490619580  0.7129641007350997
  0.7316827658329998  0.8634632664674200  0.2869568703863123
  0.7317089259000156  0.8632892878252463  0.3731132479970043
  0.8648338026958911  0.9301921855130146  0.5432556856561064
  0.7290346525119844  0.4636940074817488  0.6281577825878841
  0.6648033628938634  0.5300670719573972  0.4569758426511470
  0.3316505395877769  0.0634252109398616  0.2869646794958101
  0.3302909412987347  0.0598742062159090  0.6259882471441145
  0.2650349238906102  0.3301694418022620  0.5431039485782279
  0.3316733561020087  0.2632790647409138  0.3730994269915229
  0.3365838590896857  0.2622659093267004  0.7116759841941303
  0.2648968864557020  0.3299357212349889  0.4569755182279778
  0.3316558724889731  0.2633235673367125  0.2869837865913141
  0.3312411209621970  0.0610556305241587  0.7119336802220388
  0.0645792136693260  0.7299225964753191  0.4569589683354707
  0.1313016242632088  0.6617746358632104  0.7131553231685857
  0.1318579809410565  0.6632554339860803  0.3731533261040099
  0.0650335430962201  0.1301251773159464  0.5431960598720238
  0.1317605003359859  0.0629982608298718  0.3731290197560071
  0.1326611849569304  0.0617838515118478  0.7126643301941158
  0.0648199435068832  0.1300294763523482  0.4570009410133125
  0.2648752208717156  0.1299137642865631  0.4568947412690250
  0.7318159426511315  0.4633852245775714  0.2870116367716520
  0.3317327577009550  0.0634481807754739  0.3731075549518224
  0.2649029975356072  0.1297478941269787  0.5431128125972364
  0.7308582251217572  0.4585219846459054  0.7137006925434264
  0.7316597489776626  0.4632194771628164  0.3730979588955634
  0.8648026331383036  0.1299950256625522  0.5431633253047465
  0.9315486245757754  0.0630917641512383  0.3731664069585179
  0.6646360850519102  0.5297371876264023  0.5431398269007133
  0.5318452250915442  0.8607981395180815  0.6267005751424364
  0.5316695767330870  0.4632060145363113  0.3731790738234011
  0.4647375514034664  0.9296547549338001  0.4569413952497925
  0.1309402702013358  0.6609377987333787  0.6270031279199486
  0.0649076742482748  0.9301616185190937  0.5431107956318186
  0.1318719988026089  0.8631922903571621  0.3730992710809673
  0.1317244507014550  0.8616326360831223  0.7127463596892341
  0.0646649996039770  0.9300132161753183  0.4569704576639708
  0.1318785033560133  0.8630991528059582  0.2869339418861898
  0.1303832297039165  0.8602441946289261  0.6265859251671486
  0.1317646603584706  0.6630897426328985  0.2869541748746798
  0.9318271170322063  0.4632390252021068  0.2870187948332230
 
  0.00000000E+00  0.00000000E+00  0.00000000E+00
  0.00000000E+00  0.00000000E+00  0.00000000E+00
  0.00000000E+00  0.00000000E+00  0.00000000E+00
  0.00000000E+00  0.00000000E+00  0.00000000E+00
  0.00000000E+00  0.00000000E+00  0.00000000E+00
  0.00000000E+00  0.00000000E+00  0.00000000E+00
  0.00000000E+00  0.00000000E+00  0.00000000E+00
  0.00000000E+00  0.00000000E+00  0.00000000E+00
  0.00000000E+00  0.00000000E+00  0.00000000E+00
  0.00000000E+00  0.00000000E+00  0.00000000E+00
  0.00000000E+00  0.00000000E+00  0.00000000E+00
  0.00000000E+00  0.00000000E+00  0.00000000E+00
  0.00000000E+00  0.00000000E+00  0.00000000E+00
  0.00000000E+00  0.00000000E+00  0.00000000E+00
  0.00000000E+00  0.00000000E+00  0.00000000E+00
  0.00000000E+00  0.00000000E+00  0.00000000E+00
  0.00000000E+00  0.00000000E+00  0.00000000E+00
  0.00000000E+00  0.00000000E+00  0.00000000E+00
  0.00000000E+00  0.00000000E+00  0.00000000E+00
  0.00000000E+00  0.00000000E+00  0.00000000E+00
  0.00000000E+00  0.00000000E+00  0.00000000E+00
  0.00000000E+00  0.00000000E+00  0.00000000E+00
  0.00000000E+00  0.00000000E+00  0.00000000E+00
  0.00000000E+00  0.00000000E+00  0.00000000E+00
  0.00000000E+00  0.00000000E+00  0.00000000E+00
  0.00000000E+00  0.00000000E+00  0.00000000E+00
  0.00000000E+00  0.00000000E+00  0.00000000E+00
  0.00000000E+00  0.00000000E+00  0.00000000E+00
  0.00000000E+00  0.00000000E+00  0.00000000E+00
  0.00000000E+00  0.00000000E+00  0.00000000E+00
  0.00000000E+00  0.00000000E+00  0.00000000E+00
  0.00000000E+00  0.00000000E+00  0.00000000E+00
  0.00000000E+00  0.00000000E+00  0.00000000E+00
  0.00000000E+00  0.00000000E+00  0.00000000E+00
  0.00000000E+00  0.00000000E+00  0.00000000E+00
  0.00000000E+00  0.00000000E+00  0.00000000E+00
  0.00000000E+00  0.00000000E+00  0.00000000E+00
  0.00000000E+00  0.00000000E+00  0.00000000E+00
  0.00000000E+00  0.00000000E+00  0.00000000E+00
  0.00000000E+00  0.00000000E+00  0.00000000E+00
  0.00000000E+00  0.00000000E+00  0.00000000E+00
  0.00000000E+00  0.00000000E+00  0.00000000E+00
  0.00000000E+00  0.00000000E+00  0.00000000E+00
  0.00000000E+00  0.00000000E+00  0.00000000E+00
  0.00000000E+00  0.00000000E+00  0.00000000E+00
  0.00000000E+00  0.00000000E+00  0.00000000E+00
  0.00000000E+00  0.00000000E+00  0.00000000E+00
  0.00000000E+00  0.00000000E+00  0.00000000E+00
  0.00000000E+00  0.00000000E+00  0.00000000E+00
  0.00000000E+00  0.00000000E+00  0.00000000E+00
  0.00000000E+00  0.00000000E+00  0.00000000E+00
  0.00000000E+00  0.00000000E+00  0.00000000E+00
  0.00000000E+00  0.00000000E+00  0.00000000E+00
  0.00000000E+00  0.00000000E+00  0.00000000E+00
  0.00000000E+00  0.00000000E+00  0.00000000E+00
  0.00000000E+00  0.00000000E+00  0.00000000E+00
  0.00000000E+00  0.00000000E+00  0.00000000E+00
  0.00000000E+00  0.00000000E+00  0.00000000E+00
  0.00000000E+00  0.00000000E+00  0.00000000E+00
  0.00000000E+00  0.00000000E+00  0.00000000E+00
  0.00000000E+00  0.00000000E+00  0.00000000E+00
  0.00000000E+00  0.00000000E+00  0.00000000E+00
  0.00000000E+00  0.00000000E+00  0.00000000E+00
  0.00000000E+00  0.00000000E+00  0.00000000E+00
  0.00000000E+00  0.00000000E+00  0.00000000E+00
  0.00000000E+00  0.00000000E+00  0.00000000E+00
  0.00000000E+00  0.00000000E+00  0.00000000E+00
  0.00000000E+00  0.00000000E+00  0.00000000E+00
  0.00000000E+00  0.00000000E+00  0.00000000E+00
  0.00000000E+00  0.00000000E+00  0.00000000E+00
  0.00000000E+00  0.00000000E+00  0.00000000E+00
  0.00000000E+00  0.00000000E+00  0.00000000E+00
  0.00000000E+00  0.00000000E+00  0.00000000E+00
  0.00000000E+00  0.00000000E+00  0.00000000E+00
  0.00000000E+00  0.00000000E+00  0.00000000E+00
  0.00000000E+00  0.00000000E+00  0.00000000E+00
  0.00000000E+00  0.00000000E+00  0.00000000E+00
  0.00000000E+00  0.00000000E+00  0.00000000E+00
  0.00000000E+00  0.00000000E+00  0.00000000E+00
  0.00000000E+00  0.00000000E+00  0.00000000E+00
  0.00000000E+00  0.00000000E+00  0.00000000E+00
  0.00000000E+00  0.00000000E+00  0.00000000E+00
  0.00000000E+00  0.00000000E+00  0.00000000E+00
  0.00000000E+00  0.00000000E+00  0.00000000E+00
  0.00000000E+00  0.00000000E+00  0.00000000E+00
  0.00000000E+00  0.00000000E+00  0.00000000E+00
  0.00000000E+00  0.00000000E+00  0.00000000E+00
  0.00000000E+00  0.00000000E+00  0.00000000E+00
  0.00000000E+00  0.00000000E+00  0.00000000E+00
  0.00000000E+00  0.00000000E+00  0.00000000E+00
  0.00000000E+00  0.00000000E+00  0.00000000E+00
  0.00000000E+00  0.00000000E+00  0.00000000E+00
  0.00000000E+00  0.00000000E+00  0.00000000E+00
  0.00000000E+00  0.00000000E+00  0.00000000E+00
  0.00000000E+00  0.00000000E+00  0.00000000E+00
  0.00000000E+00  0.00000000E+00  0.00000000E+00
  0.00000000E+00  0.00000000E+00  0.00000000E+00
  0.00000000E+00  0.00000000E+00  0.00000000E+00
  0.00000000E+00  0.00000000E+00  0.00000000E+00
  0.00000000E+00  0.00000000E+00  0.00000000E+00
  0.00000000E+00  0.00000000E+00  0.00000000E+00
  0.00000000E+00  0.00000000E+00  0.00000000E+00
  0.00000000E+00  0.00000000E+00  0.00000000E+00
  0.00000000E+00  0.00000000E+00  0.00000000E+00
  0.00000000E+00  0.00000000E+00  0.00000000E+00
  0.00000000E+00  0.00000000E+00  0.00000000E+00
  0.00000000E+00  0.00000000E+00  0.00000000E+00
  0.00000000E+00  0.00000000E+00  0.00000000E+00
  0.00000000E+00  0.00000000E+00  0.00000000E+00
  0.00000000E+00  0.00000000E+00  0.00000000E+00
  0.00000000E+00  0.00000000E+00  0.00000000E+00
  0.00000000E+00  0.00000000E+00  0.00000000E+00
  0.00000000E+00  0.00000000E+00  0.00000000E+00
  0.00000000E+00  0.00000000E+00  0.00000000E+00
  0.00000000E+00  0.00000000E+00  0.00000000E+00
  0.00000000E+00  0.00000000E+00  0.00000000E+00
  0.00000000E+00  0.00000000E+00  0.00000000E+00
  0.00000000E+00  0.00000000E+00  0.00000000E+00
  0.00000000E+00  0.00000000E+00  0.00000000E+00
  0.00000000E+00  0.00000000E+00  0.00000000E+00
  0.00000000E+00  0.00000000E+00  0.00000000E+00
  0.00000000E+00  0.00000000E+00  0.00000000E+00
  0.00000000E+00  0.00000000E+00  0.00000000E+00
  0.00000000E+00  0.00000000E+00  0.00000000E+00
  0.00000000E+00  0.00000000E+00  0.00000000E+00
  0.00000000E+00  0.00000000E+00  0.00000000E+00
  0.00000000E+00  0.00000000E+00  0.00000000E+00
  0.00000000E+00  0.00000000E+00  0.00000000E+00
  0.00000000E+00  0.00000000E+00  0.00000000E+00
  0.00000000E+00  0.00000000E+00  0.00000000E+00
  0.00000000E+00  0.00000000E+00  0.00000000E+00
  0.00000000E+00  0.00000000E+00  0.00000000E+00
  0.00000000E+00  0.00000000E+00  0.00000000E+00
  0.00000000E+00  0.00000000E+00  0.00000000E+00
  0.00000000E+00  0.00000000E+00  0.00000000E+00
  0.00000000E+00  0.00000000E+00  0.00000000E+00
  0.00000000E+00  0.00000000E+00  0.00000000E+00
  0.00000000E+00  0.00000000E+00  0.00000000E+00
  0.00000000E+00  0.00000000E+00  0.00000000E+00
  0.00000000E+00  0.00000000E+00  0.00000000E+00
  0.00000000E+00  0.00000000E+00  0.00000000E+00
  0.00000000E+00  0.00000000E+00  0.00000000E+00
  0.00000000E+00  0.00000000E+00  0.00000000E+00
  0.00000000E+00  0.00000000E+00  0.00000000E+00
  0.00000000E+00  0.00000000E+00  0.00000000E+00
  0.00000000E+00  0.00000000E+00  0.00000000E+00
  0.00000000E+00  0.00000000E+00  0.00000000E+00
  0.00000000E+00  0.00000000E+00  0.00000000E+00
  0.00000000E+00  0.00000000E+00  0.00000000E+00
  0.00000000E+00  0.00000000E+00  0.00000000E+00
  0.00000000E+00  0.00000000E+00  0.00000000E+00
  0.00000000E+00  0.00000000E+00  0.00000000E+00
  0.00000000E+00  0.00000000E+00  0.00000000E+00
  0.00000000E+00  0.00000000E+00  0.00000000E+00
  0.00000000E+00  0.00000000E+00  0.00000000E+00
  0.00000000E+00  0.00000000E+00  0.00000000E+00
  0.00000000E+00  0.00000000E+00  0.00000000E+00
  0.00000000E+00  0.00000000E+00  0.00000000E+00
  0.00000000E+00  0.00000000E+00  0.00000000E+00
  0.00000000E+00  0.00000000E+00  0.00000000E+00
  0.00000000E+00  0.00000000E+00  0.00000000E+00
  0.00000000E+00  0.00000000E+00  0.00000000E+00
  0.00000000E+00  0.00000000E+00  0.00000000E+00
  0.00000000E+00  0.00000000E+00  0.00000000E+00
  0.00000000E+00  0.00000000E+00  0.00000000E+00
  0.00000000E+00  0.00000000E+00  0.00000000E+00
  0.00000000E+00  0.00000000E+00  0.00000000E+00
  0.00000000E+00  0.00000000E+00  0.00000000E+00
  0.00000000E+00  0.00000000E+00  0.00000000E+00
  0.00000000E+00  0.00000000E+00  0.00000000E+00
  0.00000000E+00  0.00000000E+00  0.00000000E+00
  0.00000000E+00  0.00000000E+00  0.00000000E+00
  0.00000000E+00  0.00000000E+00  0.00000000E+00
  0.00000000E+00  0.00000000E+00  0.00000000E+00
  0.00000000E+00  0.00000000E+00  0.00000000E+00
  0.00000000E+00  0.00000000E+00  0.00000000E+00
  0.00000000E+00  0.00000000E+00  0.00000000E+00
  0.00000000E+00  0.00000000E+00  0.00000000E+00
  0.00000000E+00  0.00000000E+00  0.00000000E+00
  0.00000000E+00  0.00000000E+00  0.00000000E+00
  0.00000000E+00  0.00000000E+00  0.00000000E+00
  0.00000000E+00  0.00000000E+00  0.00000000E+00
  0.00000000E+00  0.00000000E+00  0.00000000E+00
  0.00000000E+00  0.00000000E+00  0.00000000E+00
  0.00000000E+00  0.00000000E+00  0.00000000E+00
  0.00000000E+00  0.00000000E+00  0.00000000E+00
  0.00000000E+00  0.00000000E+00  0.00000000E+00
  0.00000000E+00  0.00000000E+00  0.00000000E+00
  0.00000000E+00  0.00000000E+00  0.00000000E+00
  0.00000000E+00  0.00000000E+00  0.00000000E+00
  0.00000000E+00  0.00000000E+00  0.00000000E+00
  0.00000000E+00  0.00000000E+00  0.00000000E+00
  0.00000000E+00  0.00000000E+00  0.00000000E+00
  0.00000000E+00  0.00000000E+00  0.00000000E+00
  0.00000000E+00  0.00000000E+00  0.00000000E+00
  0.00000000E+00  0.00000000E+00  0.00000000E+00
  0.00000000E+00  0.00000000E+00  0.00000000E+00
  0.00000000E+00  0.00000000E+00  0.00000000E+00
  0.00000000E+00  0.00000000E+00  0.00000000E+00
  0.00000000E+00  0.00000000E+00  0.00000000E+00
  0.00000000E+00  0.00000000E+00  0.00000000E+00
  0.00000000E+00  0.00000000E+00  0.00000000E+00
  0.00000000E+00  0.00000000E+00  0.00000000E+00
  0.00000000E+00  0.00000000E+00  0.00000000E+00
  0.00000000E+00  0.00000000E+00  0.00000000E+00
  0.00000000E+00  0.00000000E+00  0.00000000E+00
  0.00000000E+00  0.00000000E+00  0.00000000E+00
  0.00000000E+00  0.00000000E+00  0.00000000E+00
  0.00000000E+00  0.00000000E+00  0.00000000E+00
  0.00000000E+00  0.00000000E+00  0.00000000E+00
  0.00000000E+00  0.00000000E+00  0.00000000E+00
  0.00000000E+00  0.00000000E+00  0.00000000E+00
  0.00000000E+00  0.00000000E+00  0.00000000E+00
  0.00000000E+00  0.00000000E+00  0.00000000E+00
  0.00000000E+00  0.00000000E+00  0.00000000E+00
  0.00000000E+00  0.00000000E+00  0.00000000E+00
  0.00000000E+00  0.00000000E+00  0.00000000E+00
  0.00000000E+00  0.00000000E+00  0.00000000E+00
  0.00000000E+00  0.00000000E+00  0.00000000E+00
  0.00000000E+00  0.00000000E+00  0.00000000E+00
  0.00000000E+00  0.00000000E+00  0.00000000E+00
  0.00000000E+00  0.00000000E+00  0.00000000E+00
  0.00000000E+00  0.00000000E+00  0.00000000E+00
  0.00000000E+00  0.00000000E+00  0.00000000E+00
  0.00000000E+00  0.00000000E+00  0.00000000E+00
  0.00000000E+00  0.00000000E+00  0.00000000E+00
  0.00000000E+00  0.00000000E+00  0.00000000E+00
  0.00000000E+00  0.00000000E+00  0.00000000E+00
  0.00000000E+00  0.00000000E+00  0.00000000E+00
  0.00000000E+00  0.00000000E+00  0.00000000E+00
  0.00000000E+00  0.00000000E+00  0.00000000E+00
  0.00000000E+00  0.00000000E+00  0.00000000E+00
  0.00000000E+00  0.00000000E+00  0.00000000E+00
  0.00000000E+00  0.00000000E+00  0.00000000E+00
  0.00000000E+00  0.00000000E+00  0.00000000E+00
  0.00000000E+00  0.00000000E+00  0.00000000E+00
  0.00000000E+00  0.00000000E+00  0.00000000E+00
  0.00000000E+00  0.00000000E+00  0.00000000E+00
  0.00000000E+00  0.00000000E+00  0.00000000E+00
