Mo S  H  C  F 
 1.0000000000000000
     7.9113990000000003  -13.7029440000000005    0.0000000000000000
     7.9113990000000003   13.7029440000000005    0.0000000000000000
     0.0000000000000000    0.0000000000000000   36.4173130000000000
 Mo  S   C   F   H   
  75 150   6   1   5 
Selective dynamics
Cartesian
 12.6435232769739905 -3.6621648143932797 18.1996049768538484   F   F   F
 11.0500046226685793 -4.5790349637580787 24.4224690542177392   F   F   F
  4.7374454839413902  6.3924643478025596 12.0101060774874302   F   F   F
  4.7209306758708598  6.3812368406361601 24.4010655068482514   F   F   F
 12.6498154499406592 -1.8449210788569592 24.4004052609635629   F   F   F
  6.3145790771198707  7.3010958761462401 18.1975634222870717   F   F   F
  9.4853100430238104 -7.3104418320720006 12.0119757423368512   F   F   F
  6.3016148258065501  9.1200841334831999 24.3846008754678216   F   F   F
  3.1160181829536304 -1.8353151780835206 24.3291977605084000   F   F   F
  7.8974762826978306 -11.8839449173372813 18.2001446814325121   F   F   F
  9.4681588420177203 -7.3216200086399992 24.3944797999653318   F   F   F
  4.7349910515156308  4.5600493978166403 18.2000347011472492   F   F   F
  6.3207210917335201  9.1332103205702406 12.0091930954505202   F   F   F
  3.1394262720868502  3.6418118316700800 24.3998313241106821   F   F   F
  1.5732755994561300  0.9108194774121601 12.0105667564968801   F   F   F
  3.1521604599172504  1.8201805504944002 18.1999960987954701   F   F   F
 14.2311708029675099  0.9127515925161601 12.0087655561959004   F   F   F
 14.2213098770259307  0.9049072051939188 24.3848630801214199   F   F   F
  1.5545196502768799  0.9006597036422398 24.3719196387349584   F   F   F
 11.0607119100751810 -0.9222922672761601 18.2004199963187894   F   F   F
 14.2249453230944116 -0.9214863971395195 18.1988875557877492   F   F   F
 11.0673073269655209 -4.5685135692959999 12.0108956048332711   F   F   F
 12.6497655290129707 -1.8286492439452806 12.0106290301021090   F   F   F
  3.1574242301279103 -1.8286196455862402 12.0097124063339002   F   F   F
  3.1493273088213600 -3.6622677235027203 18.1961282159817408   F   F   F
  7.8968807916951000 10.0412084988422414 18.1979334221871483   F   F   F
 11.0620222750915502 -6.4028221291132805 18.1985488747768507   F   F   F
  7.8831069669221101 11.8633203422640001 24.3637654381811295   F   F   F
  7.9031053222003207 11.8742828344934406 12.0071205861676908   F   F   F
  3.1548718545825301  3.6522148326960000 12.0116454373079407   F   F   F
  6.3152710080764107 -3.6625632960047994 18.1992367978194203   F   F   F
  1.5677918923532701 -0.9203413791388801 18.1979840422522194   F   F   F
  6.2416756144488605 -1.8758538305836794 24.3117127160177127   F   F   F
  4.7381731744214104  0.9120686377872007 12.0100656542700008   F   F   F
  4.7238322605681002  0.8915308023494402 24.3964405080972497   F   F   F
  7.8886606899061205 -10.0597743436089591 24.3817577758419084   F   F   F
  7.9030270784642100 -10.0501826938972787 12.0115817070101887   F   F   F
  6.3179650767778801  1.8199740471283201 18.1989425459303789   F   F   F
  6.3197219611538102  3.6530594821641609 12.0102728687809694   F   F   F
  6.3052888003881602  3.6397540605696004 24.4288293379331876   F   F   F
  7.8989718535647899  4.5596298136713607 18.1999025063010613   F   F   F
  4.7338255442149499 -0.9206354443171196 18.1990397801560881   F   F   F
 11.0663227533599695  0.9119644954128016 12.0089119537941595   F   F   F
  7.8824598935979004  6.3814506065625602 24.3892495454722713   F   F   F
 12.6382897283075106  3.6450586072214399 24.3850881391157586   F   F   F
 11.0714146879843494  0.9116002711612802 24.4360050052867130   F   F   F
 12.6433569002530195  1.8179413524153589 18.2018468266421287   F   F   F
  9.4796350382931305  7.3006773882364806 18.1968132256392678   F   F   F
  9.4852182707954107  9.1350348675638404 12.0088609695559612   F   F   F
  9.4601241043073099  9.1192266032476788 24.3492028830586875   F   F   F
  6.3206919777852004 -1.8290503291161608 12.0100569141148803   F   F   F
  7.9022485968026102  6.3940201800643210 12.0096144437619294   F   F   F
  9.4809471438172803 -9.1431175490822412 18.1988915616921823   F   F   F
 12.6487951168116304  3.6529262895484798 12.0109502308027700   F   F   F
  4.7339232499925998 -6.4030417873056003 18.1963947907128976   F   F   F
  9.4750313161010400 -1.8295521309254410 24.5140662440484718   F   F   F
  6.3154581126627596 -9.1440394831545593 18.2000041106043291   F   F   F
  9.4853569576198797 -1.8280916711539201 12.0090237549450691   F   F   F
  9.4797503864905508 -3.6618973329264008 18.2005660297439178   F   F   F
  7.9012498617928504  0.9118636417449607 12.0095976917979499   F   F   F
  7.9008750988222207  0.9016235687232006 24.5192247564349195   F   F   F
  7.8758950147076998 -4.5763184921395199 24.3871147625842113   F   F   F
  7.9029928221065404 -4.5699375792364796 12.0105929769622399   F   F   F
  9.4797589308014718  1.8168137371535997 18.2003999667966383   F   F   F
  7.8969649689804609 -0.9217093440384001 18.1984545539361804   F   F   F
  9.4723705543893608  3.6580170702739201 24.4056712044233599   F   F   F
  7.8980595110321099 -6.4035579772060807 18.1981202430028404   F   F   F
 11.0627943485199598  4.5581719574591997 18.1998832051251718   F   F   F
 11.0656427686159216  6.3935922371232010 12.0112321008053904   F   F   F
 11.0471835760131611  6.3780092492064009 24.3648641485143429   F   F   F
  4.7384902632933299 -4.5705143361494400 12.0100780361564201   F   F   F
  6.3012272463695407 -7.3242416558860803 24.3686377104874019   F   F   F
  6.3193903944217205 -7.3108738858963207 12.0112237248234006   F   F   F
  9.4844852005640714  3.6519761274115208 12.0111279472902091   F   F   F
  4.7093239415119506 -4.6046250746486406 24.3274253298846901   F   F   F
  7.9135138751806799 -0.9062954504505608 22.9559620683642436   F   F   F
  4.6676672612173506 -0.8766848957903999 22.7401443313711198   F   F   F
  6.3178706146738204  3.6460184984486399 19.7702370723832104   F   F   F
  6.3190690333943405  1.8269458309766402 13.5794307914800889   F   F   F
  6.2659409036637301  1.8171310973366399 26.0190859950919879   F   F   F
  6.2633394774445499 -3.6965761954838396 25.9110791640234623   F   F   F
  7.8965309496313196  0.9033816564384002 19.7696878993031717   F   F   F
  6.3205680061628700 -3.6563931343804792 10.4428451326224803   F   F   F
  6.3096942629213109 -3.7395009416227194 22.7367323933161529   F   F   F
 14.2307886032818214 -0.9143829279993589 10.4415067963697297   F   F   F
  7.8981061091722209  0.9051830454566401 16.6285227633358090   F   F   F
  7.9017783432460504 -0.9131506222454400 10.4410592275929606   F   F   F
  6.3152375428586405  9.1279815511987206 19.7674700849414720   F   F   F
  6.3137545511160900 -1.8351997992950404 16.6289204403937703   F   F   F
  4.7320044192791402  4.5445073817024007 22.8408352884310801   F   F   F
  3.1564769192116500  1.8245345239209600 13.5803554270571603   F   F   F
  4.7330713505482800  6.3859813479667196 16.6283891117970981   F   F   F
  1.5692286815256600  0.9059164270195200 19.7683375453371326   F   F   F
  1.5735887326285500 -0.9185956240732800 13.5789817660108003   F   F   F
  1.5607831839791702 -0.9353614501161601 25.9261996323810600   F   F   F
  1.5685725892065900  0.9069853936809599 16.6297791606343104   F   F   F
  1.5751971991592402 -0.9158252998848000 10.4404252021736301   F   F   F
  1.5294768287682903 -0.9127392598665602 22.7806669680656100   F   F   F
  4.7356904191872298  4.5647009991868801 10.4428214613690304   F   F   F
  3.1515923423550603  3.6484833840153601 19.7695160095858107   F   F   F
  3.1531730398752598  3.6471108971443198 16.6312187370171998   F   F   F
  3.1560329314997699  1.8255962280220799 10.4440731244168408   F   F   F
  3.1539717747183000  1.8249051885561600 22.8241222909759891   F   F   F
  4.7331200847661208  6.3871452760300809 19.7678047600479410   F   F   F
  4.7377429525437904  4.5657355714588803 13.5800003582554112   F   F   F
  4.7119953044982905  4.5612599158896003 25.9774766657775800   F   F   F
  3.1304714386727404  1.8017436504307205 25.9556889157559390   F   F   F
  9.4800072696160811  3.6433058636544007 19.7700939523431209   F   F   F
  7.9023781064042407  4.5664926591148802 10.4431149849118103   F   F   F
  9.5124179770133690  1.8727061273174406 26.0117242352690390   F   F   F
  6.3192941918098802  7.3059970081267203 13.5788761558030995   F   F   F
 14.2004696697801318 -0.9213444346396786 22.8109534264220635   F   F   F
  4.7161510041650105 -6.4418401659177604 22.7803089858788184   F   F   F
  4.7326094830746603 -4.5749235324403204 16.6278770843763191   F   F   F
  4.7141529012335708 -6.4006049927740802 25.9238059223975696   F   F   F
  4.7368127302493699 -6.3967577542166394 13.5805666474725601   F   F   F
  4.7303404938414602 -4.5756900751276799 19.7647701053556482   F   F   F
  9.4521942717476399  7.2781359083270400 22.7968129479572887   F   F   F
  9.4848688243015804  7.3089140908454402 10.4410410189364597   F   F   F
  9.4787410502061302  9.1283108329430398 16.6276509328625899   F   F   F
  9.4751775187545615  7.3109643253267205 25.9335967169976200   F   F   F
  9.4823954045182202  7.3108823817216004 13.5792931340369503   F   F   F
  9.4791568733375708  9.1268824380604805 19.7671226637754529   F   F   F
  7.8729506293418696  4.5410360148988795 22.8363770809736195   F   F   F
  7.8971675007948603  6.3866785537574406 16.6286108932332688   F   F   F
  7.8907966885221299  4.5757283063414391 25.9800295194188813   F   F   F
  7.9016187703282208  4.5668700381926399 13.5807731336372708   F   F   F
  9.4812215111346010  3.6436859833209603 16.6317347703424119   F   F   F
  9.4836295036482294  1.8250546876751994 10.4411586468574509   F   F   F
  9.4485080344975803  1.7903704809696006 22.8913490149471208   F   F   F
 11.0638796342347803  6.3881061264633612 19.7649088553181791   F   F   F
 11.0674762353341709  4.5658438247164801 13.5819177297848608   F   F   F
 11.0674040042613004  4.5792670916294407 25.9541411799534423   F   F   F
  9.4835699308137595  1.8225515708947206 13.5793918249551790   F   F   F
  6.3206949841168196 -3.6578148148204792 13.5797188524259198   F   F   F
  6.3154528120254296 -1.8353291550863999 19.7691267085098410   F   F   F
  4.7370493601934598 -6.3977930116358399 10.4433258411540795   F   F   F
  6.3178465640208596  3.6476754584371194 16.6300038554555201   F   F   F
  6.3187562957918706  1.8264471808444795 10.4416921604929005   F   F   F
  6.3653325213266401  1.7883671105568006 22.8941910220536400   F   F   F
  7.8963400475734504  6.3885790150607997 19.7660873195668572   F   F   F
 11.0667343043359505  4.5664571684899204 10.4440006539639700   F   F   F
  6.3081042299502910  7.3008297649737601 25.9596984619172382   F   F   F
 11.0609364355787996  0.9033405476063997 19.7713743850682029   F   F   F
  3.1366688330793902 -3.6670216858646403 25.8967067072748804   F   F   F
  6.3195593027903696 -9.1378768581494381 13.5813110173502807   F   F   F
 14.2336132891807807 -0.9139803355046398 13.5779821107689500   F   F   F
 14.2436678861698809 -0.9245951840448009 25.9526724697201487   F   F   F
 14.2245147847608315  0.9063553323158400 16.6318564041678307   F   F   F
  6.3157092204670198 -7.3165707478348789 19.7670989925220013   F   F   F
  9.4856700907923006 -9.1372296681043199 13.5829771094200300   F   F   F
 12.6512994701650801 -3.6580954511136001 13.5804799742676199   F   F   F
  6.3087032810825701 -9.1396431676310410 25.9469400204808203   F   F   F
  7.8942497768436599 -11.8870515117715190 25.9477663293127883   F   F   F
 12.6698634096906009  1.8370945053619205 25.9712591379290920   F   F   F
 12.6477197203455614  1.8260836417401596 13.5784373271814509   F   F   F
 12.6217960436723100  1.8086835064195206 22.8283299473200074   F   F   F
 11.0626357249700096 -4.5771243622761597 19.7701423873694111   F   F   F
 12.6453517595108718  3.6449470652572802 19.7701165310771820   F   F   F
 11.0682972012084004 -6.3960223172121609 13.5803153680128599   F   F   F
 11.0474626901698798 -6.4191537088608008 25.9729813126608633   F   F   F
 12.6483663189858309  1.8269396646518403 10.4417147392269616   F   F   F
  6.3164327970195604 -7.3187412941644796 16.6283982161253512   F   F   F
  6.3200180848183800 -9.1378268424038396 10.4442501125580200   F   F   F
  6.3069680739398999 -9.1548834449184007 22.8063601107333689   F   F   F
 12.6453700348425606  3.6437977993440005 16.6316084022663020   F   F   F
  7.8979921059126301 -4.5781276918358413 19.7691321711067900   F   F   F
  7.9013860960836304 -6.3969994741487994 13.5797629173746497   F   F   F
  7.8709858334002210 -6.4079899203840007 25.9486243212070704   F   F   F
  7.8975307131229506 -10.0567159835376003 16.6312183728440708   F   F   F
  9.4805601972921902 -7.3180307965180793 16.6286917396681311   F   F   F
 12.6149650253197496 -3.6717859254345608 22.8299323090920119   F   F   F
 12.6501720166935900 -3.6555742464470402 10.4418793454817198   F   F   F
  7.9030872842106001 -6.3990895841971192 10.4438185673989690   F   F   F
  7.8992751766024512 -6.4049131983676793 22.8160838974774975   F   F   F
 12.6434311091756406 -1.8343525462675188 16.6299251940594388   F   F   F
  7.8985879924853108 -4.5754021762742410 16.6305963651380289   F   F   F
  9.4612555134783012 -9.1499232532492805 25.9614035205118974   F   F   F
 14.2254682665683116  0.9031918706640006 19.7696988244970697   F   F   F
  7.9035997055238294 -11.8764091203139195 10.4425523374259601   F   F   F
  7.8850524590502005 -11.8819359287174411 22.8078707008766095   F   F   F
 12.6532285065832504 -3.6727684265193608 25.9736910860912289   F   F   F
 11.0614522587936008 -4.5749827291583998 16.6308185107473285   F   F   F
  6.3150079540596602  9.1290854603673601 16.6286942888800411   F   F   F
 11.0183738209847100 -0.9312626255068788 22.8877269489961392   F   F   F
 11.0635968808345204  0.9042068477260797 16.6307496820257583   F   F   F
  7.9029791353862704 10.0496726703216002 13.5774999455448313   F   F   F
  7.8982128339447311 10.0370267714217611 25.9320497095413813   F   F   F
  7.8956807906947803 11.8691096990745617 16.6296535209044620   F   F   F
  7.9031167937288700 10.0455376699401597 10.4399368460063009   F   F   F
  7.8666188202662104 10.0318273263504008 22.7932826536350710   F   F   F
  3.1511540508504603 -1.8355126375065596 19.7645126349527374   F   F   F
  6.3187930837972202  7.3064302952160007 10.4414434302451102   F   F   F
  7.8951707428012501 11.8684537391452807 19.7663400557190805   F   F   F
  3.1567960650473101 -3.6570670451663996 13.5790753585052109   F   F   F
  3.1578546893475004 -3.6556302914879999 10.4420231938680708   F   F   F
  3.1183808431509901 -3.6743886626179192 22.7655909288298730   F   F   F
  4.7375802150663606  0.9065464883846405 19.7681762166405406   F   F   F
  4.7388038711496900 -0.9134065932393597 13.5801726121459012   F   F   F
  4.6748463020119200 -0.9481480782508797 25.9152791727317506   F   F   F
  4.7354801342018105  0.9071180381788803 16.6311990716681812   F   F   F
  4.7401803754616996 -0.9144465096595203 10.4414266782811307   F   F   F
  3.1509225633157198 -1.8337709933241604 16.6291651647371275   F   F   F
  6.2953581750213905  7.2878862381302412 22.8209539847449889   F   F   F
 11.0633334312478215  6.3857889586329604 16.6285125664881726   F   F   F
  7.9034705123781608 -0.9159546556761594 13.5785698862007695   F   F   F
 11.1228217719765006 -0.9215882100134413 26.0096145803269501   F   F   F
 11.0668448265799810 -0.9129887904767995 13.5800109192761802   F   F   F
 11.0673705390435302 -6.3954661147151990 10.4440483606440004   F   F   F
 11.0505947339199899 -6.3960630149558400 22.8369579371159688   F   F   F
  9.4787524426206904 -9.1443487586006391 22.8211885122407132   F   F   F
  9.4795313198522404 -7.3166874969177593 19.7674267483390018   F   F   F
  9.4850853592922100 -9.1364216054966398 10.4433917564906089   F   F   F
 12.6429737511994507 -1.8354231572822388 19.7688685097606722   F   F   F
  9.4761976145416202 -3.6022622576678405 22.8859035341342292   F   F   F
  9.4840333805671815 -3.6563499701068793 10.4422471603430189   F   F   F
  9.4797052124022603 -1.8359168743545602 16.6304099084954693   F   F   F
  9.4517149991962217 -3.7053308693760005 26.0116117057718697   F   F   F
  9.4850371788723002 -3.6537817643424000 13.5811853776204288   F   F   F
  7.8990835625186699 -10.0555402709423998 19.7682304784369123   F   F   F
  7.9001988324357004 -11.8773846328972805 13.5795480552279493   F   F   F
  9.4771609064838600 -1.8341130188063988 19.7704512061836510   F   F   F
 11.0432896645393512  4.5373641740246402 22.8116868711058807   F   F   F
 11.0684282139758405 -0.9149496817631997 10.4414434302451102   F   F   F
  8.0803364825983213 -0.8150058894048005 26.2827815734862078   T   T   T
  8.8274161036078365 -0.3408473785383916 28.4192956828655490   T   T   T
  9.8859075842962572  0.2490516902266952 29.1284188576069205   T   T   T
  7.7976177872276358 -0.9858535612291232 30.5237744547005718   T   T   T
  9.9053934574317157  0.2265313962334622 30.5226796530296767   T   T   T
  8.8592513032833029 -0.3929866733098148 31.1943961032587005   T   T   T
  7.7850428465731625 -0.9564383565712683 29.1281983163802884   T   T   T
  8.8778839249235304 -0.4215919198433478 32.5635333350149097   T   T   T
  6.8197809223064105 -1.5354254264668805 26.1389317304436872   T   T   T
 10.7051163474236830  0.7303620819542742 28.5892056713553053   T   T   T
 10.7219658540554761  0.6802830862879340 31.0866920637097124   T   T   T
  6.9926132270558190 -1.4603791665870443 31.0871725350668235   T   T   T
  6.9519147162947510 -1.4166975130105719 28.5930366826660531   T   T   T
  ! improved dimer method
           0           0           0  
           0           0           0  
           0           0           0  
           0           0           0  
           0           0           0  
           0           0           0  
           0           0           0  
           0           0           0  
           0           0           0  
           0           0           0  
           0           0           0  
           0           0           0  
           0           0           0  
           0           0           0  
           0           0           0  
           0           0           0  
           0           0           0  
           0           0           0  
           0           0           0  
           0           0           0  
           0           0           0  
           0           0           0  
           0           0           0  
           0           0           0  
           0           0           0  
           0           0           0  
           0           0           0  
           0           0           0  
           0           0           0  
           0           0           0  
           0           0           0  
           0           0           0  
           0           0           0  
           0           0           0  
           0           0           0  
           0           0           0  
           0           0           0  
           0           0           0  
           0           0           0  
           0           0           0  
           0           0           0  
           0           0           0  
           0           0           0  
           0           0           0  
           0           0           0  
           0           0           0  
           0           0           0  
           0           0           0  
           0           0           0  
           0           0           0  
           0           0           0  
           0           0           0  
           0           0           0  
           0           0           0  
           0           0           0  
           0           0           0  
           0           0           0  
           0           0           0  
           0           0           0  
           0           0           0  
           0           0           0  
           0           0           0  
           0           0           0  
           0           0           0  
           0           0           0  
           0           0           0  
           0           0           0  
           0           0           0  
           0           0           0  
           0           0           0  
           0           0           0  
           0           0           0  
           0           0           0  
           0           0           0  
           0           0           0  
           0           0           0  
           0           0           0  
           0           0           0  
           0           0           0  
           0           0           0  
           0           0           0  
           0           0           0  
           0           0           0  
           0           0           0  
           0           0           0  
           0           0           0  
           0           0           0  
           0           0           0  
           0           0           0  
           0           0           0  
           0           0           0  
           0           0           0  
           0           0           0  
           0           0           0  
           0           0           0  
           0           0           0  
           0           0           0  
           0           0           0  
           0           0           0  
           0           0           0  
           0           0           0  
           0           0           0  
           0           0           0  
           0           0           0  
           0           0           0  
           0           0           0  
           0           0           0  
           0           0           0  
           0           0           0  
           0           0           0  
           0           0           0  
           0           0           0  
           0           0           0  
           0           0           0  
           0           0           0  
           0           0           0  
           0           0           0  
           0           0           0  
           0           0           0  
           0           0           0  
           0           0           0  
           0           0           0  
           0           0           0  
           0           0           0  
           0           0           0  
           0           0           0  
           0           0           0  
           0           0           0  
           0           0           0  
           0           0           0  
           0           0           0  
           0           0           0  
           0           0           0  
           0           0           0  
           0           0           0  
           0           0           0  
           0           0           0  
           0           0           0  
           0           0           0  
           0           0           0  
           0           0           0  
           0           0           0  
           0           0           0  
           0           0           0  
           0           0           0  
           0           0           0  
           0           0           0  
           0           0           0  
           0           0           0  
           0           0           0  
           0           0           0  
           0           0           0  
           0           0           0  
           0           0           0  
           0           0           0  
           0           0           0  
           0           0           0  
           0           0           0  
           0           0           0  
           0           0           0  
           0           0           0  
           0           0           0  
           0           0           0  
           0           0           0  
           0           0           0  
           0           0           0  
           0           0           0  
           0           0           0  
           0           0           0  
           0           0           0  
           0           0           0  
           0           0           0  
           0           0           0  
           0           0           0  
           0           0           0  
           0           0           0  
           0           0           0  
           0           0           0  
           0           0           0  
           0           0           0  
           0           0           0  
           0           0           0  
           0           0           0  
           0           0           0  
           0           0           0  
           0           0           0  
           0           0           0  
           0           0           0  
           0           0           0  
           0           0           0  
           0           0           0  
           0           0           0  
           0           0           0  
           0           0           0  
           0           0           0  
           0           0           0  
           0           0           0  
           0           0           0  
           0           0           0  
           0           0           0  
           0           0           0  
           0           0           0  
           0           0           0  
           0           0           0  
           0           0           0  
           0           0           0  
           0           0           0  
           0           0           0  
           0           0           0  
           0           0           0  
           0           0           0  
           0           0           0  
           0           0           0  
           0           0           0  
           0           0           0  
           0           0           0  
           0           0           0  
           0           0           0  
           0           0           0  
           0           0           0  
           0           0           0  
           0           0           0  
           0           0           0  
           0           0           0  
   -0.024037   -0.017775   -0.114863  
   -0.032972   -0.009887    0.053565  
   -0.021898   -0.008033    0.027492  
   -0.012566   -0.009797    0.041934  
   -0.009319   -0.005683    0.026218  
   -0.006829   -0.005826    0.028881  
   -0.026295   -0.013008    0.041968  
    0.000976   -0.002933    0.028159  
    0.110230    0.062953    0.605458  
   -0.029168   -0.009269    0.015239  
   -0.006694   -0.005402    0.022464  
   -0.004799   -0.009484    0.053521  
   -0.035576   -0.016185    0.058692  
