 C  F  H                                
   1.00000000000000     
     7.9113985352808234  -13.7029442220323787    0.0000000000000000
     7.9113985352808278   13.7029442220323787    0.0000000000000000
     0.0000000000000000    0.0000000000000000   36.4173130480389986
   C    F    H 
     6     5     1
Direct
  0.4983286010343306  0.4966572020686684  0.4531773670326231
  0.5425645335650486  0.5851290671301044  0.4718227379823787
  0.4562349810689028  0.4124699621378056  0.5118760822798833
  0.5445626013127480  0.5891252026255032  0.5100954691151856
  0.5010801639441098  0.5021603278882196  0.5300659224115805
  0.4554864292827929  0.4109728585655859  0.4735782759563492
  0.5876906997009215  0.6753813994018429  0.5278846793830851
  0.5023724648097314  0.5047449296194699  0.5670129456681892
  0.4144413695654805  0.3288827391309681  0.5313852901830316
  0.4117751905693865  0.3235503811387801  0.4562725465353665
  0.5849692938131454  0.6699385876262909  0.4527599526689130
  0.4972825200980964  0.4945650401961856  0.4232648353120396
 
  0.00000000E+00  0.00000000E+00  0.00000000E+00
  0.00000000E+00  0.00000000E+00  0.00000000E+00
  0.00000000E+00  0.00000000E+00  0.00000000E+00
  0.00000000E+00  0.00000000E+00  0.00000000E+00
  0.00000000E+00  0.00000000E+00  0.00000000E+00
  0.00000000E+00  0.00000000E+00  0.00000000E+00
  0.00000000E+00  0.00000000E+00  0.00000000E+00
  0.00000000E+00  0.00000000E+00  0.00000000E+00
  0.00000000E+00  0.00000000E+00  0.00000000E+00
  0.00000000E+00  0.00000000E+00  0.00000000E+00
  0.00000000E+00  0.00000000E+00  0.00000000E+00
  0.00000000E+00  0.00000000E+00  0.00000000E+00
