 C  F  H                                
   1.00000000000000     
     7.9113985352808234  -13.7029442220323787    0.0000000000000000
     7.9113985352808278   13.7029442220323787    0.0000000000000000
     0.0000000000000000    0.0000000000000000   36.4173130480389986
   C    F    H 
     6     5     1
Direct
  0.4983286010343300  0.4966572020686671  0.4531773670326196
  0.5425645335650490  0.5851290671301052  0.4718227379823786
  0.4562349810689035  0.4124699621378067  0.5118760822798817
  0.5445626013127502  0.5891252026255005  0.5100954691151860
  0.5010801639441094  0.5021603278882183  0.5300659224115825
  0.4554864292827928  0.4109728585655855  0.4735782759563465
  0.5876906997009222  0.6753813994018447  0.5278846793830868
  0.5023724648097313  0.5047449296194699  0.5670129456681876
  0.4144413695654809  0.3288827391309690  0.5313852901830329
  0.4117751905693898  0.3235503811387795  0.4562725465353700
  0.5849692938131446  0.6699385876262894  0.4527599526689133
  0.4972825200980980  0.4945650401961889  0.4232648353120396
 
  0.00000000E+00  0.00000000E+00  0.00000000E+00
  0.00000000E+00  0.00000000E+00  0.00000000E+00
  0.00000000E+00  0.00000000E+00  0.00000000E+00
  0.00000000E+00  0.00000000E+00  0.00000000E+00
  0.00000000E+00  0.00000000E+00  0.00000000E+00
  0.00000000E+00  0.00000000E+00  0.00000000E+00
  0.00000000E+00  0.00000000E+00  0.00000000E+00
  0.00000000E+00  0.00000000E+00  0.00000000E+00
  0.00000000E+00  0.00000000E+00  0.00000000E+00
  0.00000000E+00  0.00000000E+00  0.00000000E+00
  0.00000000E+00  0.00000000E+00  0.00000000E+00
  0.00000000E+00  0.00000000E+00  0.00000000E+00
