 C  F  H  S                             
   1.00000000000000     
     7.9113985352808234  -13.7029442220323787    0.0000000000000000
     7.9113985352808278   13.7029442220323787    0.0000000000000000
     0.0000000000000000    0.0000000000000000   36.4173130480389986
   C    F    H    S 
     6     5     1     1
Direct
  0.4978001200667279  0.4956002401334558  0.4681019832742663
  0.5424997632160924  0.5849995264321848  0.4866740993454641
  0.4575899718021006  0.4151799436042154  0.5279321987802490
  0.5454181362756856  0.5908362725513712  0.5248327512984901
  0.5026964505947973  0.5053929011895946  0.5456842117978198
  0.4555971796154026  0.4111943592308123  0.4897170809746214
  0.5892107814130156  0.6784215628260313  0.5416658002360819
  0.5049624112030813  0.5099248224061554  0.5826352717863230
  0.4161191201717358  0.3322382403434716  0.5478328730317017
  0.4111136393247179  0.3222272786494358  0.4733437277977330
  0.5843442769321356  0.6686885538642713  0.4668575960544601
  0.4484648305023740  0.3969296610047408  0.4170239887186256
  0.4975940210813619  0.4951880421627166  0.4199016953377850
 
  0.00000000E+00  0.00000000E+00  0.00000000E+00
  0.00000000E+00  0.00000000E+00  0.00000000E+00
  0.00000000E+00  0.00000000E+00  0.00000000E+00
  0.00000000E+00  0.00000000E+00  0.00000000E+00
  0.00000000E+00  0.00000000E+00  0.00000000E+00
  0.00000000E+00  0.00000000E+00  0.00000000E+00
  0.00000000E+00  0.00000000E+00  0.00000000E+00
  0.00000000E+00  0.00000000E+00  0.00000000E+00
  0.00000000E+00  0.00000000E+00  0.00000000E+00
  0.00000000E+00  0.00000000E+00  0.00000000E+00
  0.00000000E+00  0.00000000E+00  0.00000000E+00
  0.00000000E+00  0.00000000E+00  0.00000000E+00
  0.00000000E+00  0.00000000E+00  0.00000000E+00
