 C  F  H  S                             
   1.00000000000000     
     7.9113985352808234  -13.7029442220323787    0.0000000000000000
     7.9113985352808278   13.7029442220323787    0.0000000000000000
     0.0000000000000000    0.0000000000000000   36.4173130480389986
   C    F    H    S 
     6     5     1     1
Direct
  0.4978001200667290  0.4956002401334581  0.4681019832742647
  0.5424997632160948  0.5849995264321832  0.4866740993454617
  0.4575899718021030  0.4151799436042133  0.5279321987802499
  0.5454181362756870  0.5908362725513735  0.5248327512984908
  0.5026964505947966  0.5053929011895932  0.5456842117978200
  0.4555971796154052  0.4111943592308108  0.4897170809746193
  0.5892107814130139  0.6784215628260279  0.5416658002360849
  0.5049624112030785  0.5099248224061570  0.5826352717863238
  0.4161191201717385  0.3322382403434700  0.5478328730317024
  0.4111136393247207  0.3222272786494342  0.4733437277977312
  0.5843442769321346  0.6686885538642695  0.4668575960544618
  0.4484648305023745  0.3969296610047418  0.4170239887186236
  0.4975940210813586  0.4951880421627172  0.4199016953377877
 
  0.00000000E+00  0.00000000E+00  0.00000000E+00
  0.00000000E+00  0.00000000E+00  0.00000000E+00
  0.00000000E+00  0.00000000E+00  0.00000000E+00
  0.00000000E+00  0.00000000E+00  0.00000000E+00
  0.00000000E+00  0.00000000E+00  0.00000000E+00
  0.00000000E+00  0.00000000E+00  0.00000000E+00
  0.00000000E+00  0.00000000E+00  0.00000000E+00
  0.00000000E+00  0.00000000E+00  0.00000000E+00
  0.00000000E+00  0.00000000E+00  0.00000000E+00
  0.00000000E+00  0.00000000E+00  0.00000000E+00
  0.00000000E+00  0.00000000E+00  0.00000000E+00
  0.00000000E+00  0.00000000E+00  0.00000000E+00
  0.00000000E+00  0.00000000E+00  0.00000000E+00
