 C  H  N  S                             
   1.00000000000000     
     7.9113985352808234  -13.7029442220323787    0.0000000000000000
     7.9113985352808278   13.7029442220323787    0.0000000000000000
     0.0000000000000000    0.0000000000000000   36.4173130480389986
   C    H    N    S 
     6     7     1     1
Direct
  0.5017801071849348  0.5014491182391438  0.4744260697635596
  0.5409431318747622  0.5882328067032034  0.4947295858845138
  0.4572646629400836  0.4101389854581328  0.5315926334402334
  0.5394932801991814  0.5864274141050743  0.5329344642667309
  0.4976392386551254  0.4971909509627750  0.5520173338277345
  0.4593898430227696  0.4124921989698933  0.4933853380070232
  0.5708144030169038  0.6548991642416695  0.5483226539565393
  0.4242065600970335  0.3399993256762386  0.5458940627022173
  0.4279004316057708  0.3443997185184244  0.4778606492289299
  0.5728627459496991  0.6579450935440718  0.4802661615122972
  0.5907904427959210  0.5171830801064345  0.4197899518269566
  0.5083935375334931  0.5556931506821670  0.6033332223827088
  0.4501685378925018  0.4321020222368830  0.6024513124195181
  0.4997607387856817  0.4953032690268131  0.5901797179131236
  0.5001658626860177  0.5034943091640471  0.4254794099886752
 
  0.00000000E+00  0.00000000E+00  0.00000000E+00
  0.00000000E+00  0.00000000E+00  0.00000000E+00
  0.00000000E+00  0.00000000E+00  0.00000000E+00
  0.00000000E+00  0.00000000E+00  0.00000000E+00
  0.00000000E+00  0.00000000E+00  0.00000000E+00
  0.00000000E+00  0.00000000E+00  0.00000000E+00
  0.00000000E+00  0.00000000E+00  0.00000000E+00
  0.00000000E+00  0.00000000E+00  0.00000000E+00
  0.00000000E+00  0.00000000E+00  0.00000000E+00
  0.00000000E+00  0.00000000E+00  0.00000000E+00
  0.00000000E+00  0.00000000E+00  0.00000000E+00
  0.00000000E+00  0.00000000E+00  0.00000000E+00
  0.00000000E+00  0.00000000E+00  0.00000000E+00
  0.00000000E+00  0.00000000E+00  0.00000000E+00
  0.00000000E+00  0.00000000E+00  0.00000000E+00
