 C  H  S                                
   1.00000000000000     
     7.9113985352808234  -13.7029442220323787    0.0000000000000000
     7.9113985352808278   13.7029442220323787    0.0000000000000000
     0.0000000000000000    0.0000000000000000   36.4173130480389986
   C    H    S 
     7     8     1
Direct
  0.5005613457256786  0.4989512076602338  0.4745574219158470
  0.5443378091521396  0.5872712418664392  0.4940190527581478
  0.4552680341307536  0.4119724234528164  0.5324813867628322
  0.5427858169094861  0.5869253749392769  0.5322865045706209
  0.4981818003347342  0.4995802198050328  0.5523129150123367
  0.4562003549762466  0.4110418227676362  0.4941982016845401
  0.4979583488872450  0.4999941159267891  0.5936661172398985
  0.5769500052003451  0.6566146524628138  0.5469270156646786
  0.4198260633050950  0.3424502278030985  0.5472374424719817
  0.4217849420325663  0.3414496462989547  0.4795653046465205
  0.5793313255538806  0.6565795246935764  0.4791736829031166
  0.4542764133788708  0.4072468332653898  0.4201612241032890
  0.5638555028036905  0.5019973022024189  0.6047434799900699
  0.4966095889122712  0.5642272015522636  0.6044933672144097
  0.4343378751151903  0.4342285861008506  0.6047011498786361
  0.5034263096915339  0.5044755221523616  0.4260760673506923
 
  0.00000000E+00  0.00000000E+00  0.00000000E+00
  0.00000000E+00  0.00000000E+00  0.00000000E+00
  0.00000000E+00  0.00000000E+00  0.00000000E+00
  0.00000000E+00  0.00000000E+00  0.00000000E+00
  0.00000000E+00  0.00000000E+00  0.00000000E+00
  0.00000000E+00  0.00000000E+00  0.00000000E+00
  0.00000000E+00  0.00000000E+00  0.00000000E+00
  0.00000000E+00  0.00000000E+00  0.00000000E+00
  0.00000000E+00  0.00000000E+00  0.00000000E+00
  0.00000000E+00  0.00000000E+00  0.00000000E+00
  0.00000000E+00  0.00000000E+00  0.00000000E+00
  0.00000000E+00  0.00000000E+00  0.00000000E+00
  0.00000000E+00  0.00000000E+00  0.00000000E+00
  0.00000000E+00  0.00000000E+00  0.00000000E+00
  0.00000000E+00  0.00000000E+00  0.00000000E+00
  0.00000000E+00  0.00000000E+00  0.00000000E+00
