 C  H  S                                
   1.00000000000000     
     7.9113985352808234  -13.7029442220323787    0.0000000000000000
     7.9113985352808278   13.7029442220323787    0.0000000000000000
     0.0000000000000000    0.0000000000000000   36.4173130480389986
   C    H    S 
     7     8     1
Direct
  0.5005613457256792  0.4989512076602364  0.4745574219158494
  0.5443378091521415  0.5872712418664412  0.4940190527581467
  0.4552680341307527  0.4119724234528188  0.5324813867628330
  0.5427858169094839  0.5869253749392757  0.5322865045706212
  0.4981818003347333  0.4995802198050359  0.5523129150123386
  0.4562003549762501  0.4110418227676356  0.4941982016845383
  0.4979583488872428  0.4999941159267924  0.5936661172398968
  0.5769500052003433  0.6566146524628170  0.5469270156646820
  0.4198260633050943  0.3424502278031014  0.5472374424719791
  0.4217849420325678  0.3414496462989530  0.4795653046465193
  0.5793313255538771  0.6565795246935741  0.4791736829031153
  0.4542764133788708  0.4072468332653868  0.4201612241032902
  0.5638555028036937  0.5019973022024219  0.6047434799900691
  0.4966095889122745  0.5642272015522648  0.6044933672144083
  0.4343378751151876  0.4342285861008483  0.6047011498786341
  0.5034263096915352  0.5044755221523637  0.4260760673506895
 
  0.00000000E+00  0.00000000E+00  0.00000000E+00
  0.00000000E+00  0.00000000E+00  0.00000000E+00
  0.00000000E+00  0.00000000E+00  0.00000000E+00
  0.00000000E+00  0.00000000E+00  0.00000000E+00
  0.00000000E+00  0.00000000E+00  0.00000000E+00
  0.00000000E+00  0.00000000E+00  0.00000000E+00
  0.00000000E+00  0.00000000E+00  0.00000000E+00
  0.00000000E+00  0.00000000E+00  0.00000000E+00
  0.00000000E+00  0.00000000E+00  0.00000000E+00
  0.00000000E+00  0.00000000E+00  0.00000000E+00
  0.00000000E+00  0.00000000E+00  0.00000000E+00
  0.00000000E+00  0.00000000E+00  0.00000000E+00
  0.00000000E+00  0.00000000E+00  0.00000000E+00
  0.00000000E+00  0.00000000E+00  0.00000000E+00
  0.00000000E+00  0.00000000E+00  0.00000000E+00
  0.00000000E+00  0.00000000E+00  0.00000000E+00
