Mo S                                    
   1.00000000000000     
     7.9113985352808234  -13.7029442220323787    0.0000000000000000
     7.9113985352808278   13.7029442220323787    0.0000000000000000
     0.0000000000000000    0.0000000000000000   23.1379258980095805
   Mo   S 
    25    49
Direct
  0.6653954185187274  0.7307908370374676  0.4986843280167861
  0.2667662423861756  0.9335324847723570  0.5012827875723289
  0.6663403733655144  0.9327226895700491  0.5003613002374578
  0.2667662423861756  0.7332337576138244  0.5012827875723289
  0.2677966522971573  0.5333582767027707  0.5003389160191176
  0.8666666666666671  0.1333333333333329  0.5002981266508044
  0.2692091629625324  0.3346045814812726  0.4986843280167861
  0.4666417232972293  0.1344383755943923  0.5003389160191176
  0.6663403733655144  0.1336176837954639  0.5003613002374578
  0.4667549478868551  0.9333774739434233  0.5010436333440040
  0.4666417232972293  0.7322033477028427  0.5003389160191176
  0.6653954185187274  0.3346045814812726  0.4986843280167861
  0.4688487642326251  0.5311512357673749  0.4968477358138870
  0.6623024715347441  0.5311512357673749  0.4968477358138870
  0.4688487642326251  0.3376975284652559  0.4968477358138870
  0.8663823162045361  0.3336596266344856  0.5003613002374578
  0.2677966522971573  0.1344383755943923  0.5003389160191176
  0.0664675152276430  0.7332337576138244  0.5012827875723289
  0.8655616244056077  0.7322033477028427  0.5003389160191176
  0.0666225260565767  0.5332450521131449  0.5010436333440040
  0.8655616244056077  0.5333582767027707  0.5003389160191176
  0.0672773104299509  0.3336596266344856  0.5003613002374578
  0.8663823162045361  0.9327226895700491  0.5003613002374578
  0.0672773104299509  0.1336176837954639  0.5003613002374578
  0.0666225260565767  0.9333774739434233  0.5010436333440040
  0.7320124837392186  0.2679875162607814  0.5673565916362406
  0.9338837165626757  0.6669418582813336  0.4330950544673797
  0.7332935222187160  0.2667064777812840  0.4322848001416872
  0.9334336484461687  0.2668672968923431  0.5679481238329060
  0.9335120437812847  0.0664879562187153  0.4327111344925356
  0.9319913580962833  0.6659956790481374  0.5685372705687328
  0.7329759124374249  0.0664879562187153  0.4327111344925356
  0.7331327031076569  0.0665663515538313  0.5679481238329060
  0.9320675954483661  0.8655889465933200  0.5683703110372065
  0.9334336484461687  0.0665663515538313  0.5679481238329060
  0.7320124837392186  0.8640249674784357  0.5673565916362406
  0.7332935222187160  0.8665870444374306  0.4322848001416872
  0.9320675954483661  0.4664786488550519  0.5683703110372065
  0.7336486715942385  0.6653177009007081  0.4308335938663816
  0.7274774385218876  0.6610347769844367  0.5664176381355901
  0.9335772909409599  0.4672235715718358  0.4329579330984927
  0.9335120437812847  0.2670240875625751  0.4327111344925356
  0.7336486715942385  0.4683309706935290  0.4308335938663816
  0.7274774385218876  0.4664426615374495  0.5664176381355901
  0.5327764284281642  0.8663537193691226  0.4329579330984927
  0.1334391186114416  0.6668782372228890  0.4335524603788627
  0.1331491196123551  0.8668508803876449  0.5690183435143013
  0.1334391186114416  0.8665608813885584  0.4335524603788627
  0.3330581417186664  0.0661162834373243  0.4330950544673797
  0.3389652230155633  0.2725225614781124  0.5664176381355901
  0.3340043209518626  0.0680086419037167  0.5685372705687328
  0.1331491196123551  0.6662982392247017  0.5690183435143013
  0.1344110534066800  0.0679324045516339  0.5683703110372065
  0.1336462806308774  0.0664227090590401  0.4329579330984927
  0.1359750325215643  0.2679875162607814  0.5673565916362406
  0.1334129555625694  0.2667064777812840  0.4322848001416872
  0.1344110534066800  0.4664786488550519  0.5683703110372065
  0.1336462806308774  0.4672235715718358  0.4329579330984927
  0.3346822990992919  0.2663513284057615  0.4308335938663816
  0.3389652230155633  0.4664426615374495  0.5664176381355901
  0.5335573384625505  0.2725225614781124  0.5664176381355901
  0.5316690293064710  0.2663513284057615  0.4308335938663816
  0.5333333333333314  0.4666666666666686  0.4281613222293075
  0.5335573384625505  0.6610347769844367  0.5664176381355901
  0.5316690293064710  0.6653177009007081  0.4308335938663816
  0.5335213511449481  0.8655889465933200  0.5683703110372065
  0.3346822990992919  0.4683309706935290  0.4308335938663816
  0.3340043209518626  0.6659956790481374  0.5685372705687328
  0.3330581417186664  0.6669418582813336  0.4330950544673797
  0.3337017607752983  0.8668508803876449  0.5690183435143013
  0.3331217627771110  0.8665608813885584  0.4335524603788627
  0.5335213511449481  0.0679324045516339  0.5683703110372065
  0.5327764284281642  0.0664227090590401  0.4329579330984927
  0.9335772909409599  0.8663537193691226  0.4329579330984927
 
  0.00000000E+00  0.00000000E+00  0.00000000E+00
  0.00000000E+00  0.00000000E+00  0.00000000E+00
  0.00000000E+00  0.00000000E+00  0.00000000E+00
  0.00000000E+00  0.00000000E+00  0.00000000E+00
  0.00000000E+00  0.00000000E+00  0.00000000E+00
  0.00000000E+00  0.00000000E+00  0.00000000E+00
  0.00000000E+00  0.00000000E+00  0.00000000E+00
  0.00000000E+00  0.00000000E+00  0.00000000E+00
  0.00000000E+00  0.00000000E+00  0.00000000E+00
  0.00000000E+00  0.00000000E+00  0.00000000E+00
  0.00000000E+00  0.00000000E+00  0.00000000E+00
  0.00000000E+00  0.00000000E+00  0.00000000E+00
  0.00000000E+00  0.00000000E+00  0.00000000E+00
  0.00000000E+00  0.00000000E+00  0.00000000E+00
  0.00000000E+00  0.00000000E+00  0.00000000E+00
  0.00000000E+00  0.00000000E+00  0.00000000E+00
  0.00000000E+00  0.00000000E+00  0.00000000E+00
  0.00000000E+00  0.00000000E+00  0.00000000E+00
  0.00000000E+00  0.00000000E+00  0.00000000E+00
  0.00000000E+00  0.00000000E+00  0.00000000E+00
  0.00000000E+00  0.00000000E+00  0.00000000E+00
  0.00000000E+00  0.00000000E+00  0.00000000E+00
  0.00000000E+00  0.00000000E+00  0.00000000E+00
  0.00000000E+00  0.00000000E+00  0.00000000E+00
  0.00000000E+00  0.00000000E+00  0.00000000E+00
  0.00000000E+00  0.00000000E+00  0.00000000E+00
  0.00000000E+00  0.00000000E+00  0.00000000E+00
  0.00000000E+00  0.00000000E+00  0.00000000E+00
  0.00000000E+00  0.00000000E+00  0.00000000E+00
  0.00000000E+00  0.00000000E+00  0.00000000E+00
  0.00000000E+00  0.00000000E+00  0.00000000E+00
  0.00000000E+00  0.00000000E+00  0.00000000E+00
  0.00000000E+00  0.00000000E+00  0.00000000E+00
  0.00000000E+00  0.00000000E+00  0.00000000E+00
  0.00000000E+00  0.00000000E+00  0.00000000E+00
  0.00000000E+00  0.00000000E+00  0.00000000E+00
  0.00000000E+00  0.00000000E+00  0.00000000E+00
  0.00000000E+00  0.00000000E+00  0.00000000E+00
  0.00000000E+00  0.00000000E+00  0.00000000E+00
  0.00000000E+00  0.00000000E+00  0.00000000E+00
  0.00000000E+00  0.00000000E+00  0.00000000E+00
  0.00000000E+00  0.00000000E+00  0.00000000E+00
  0.00000000E+00  0.00000000E+00  0.00000000E+00
  0.00000000E+00  0.00000000E+00  0.00000000E+00
  0.00000000E+00  0.00000000E+00  0.00000000E+00
  0.00000000E+00  0.00000000E+00  0.00000000E+00
  0.00000000E+00  0.00000000E+00  0.00000000E+00
  0.00000000E+00  0.00000000E+00  0.00000000E+00
  0.00000000E+00  0.00000000E+00  0.00000000E+00
  0.00000000E+00  0.00000000E+00  0.00000000E+00
  0.00000000E+00  0.00000000E+00  0.00000000E+00
  0.00000000E+00  0.00000000E+00  0.00000000E+00
  0.00000000E+00  0.00000000E+00  0.00000000E+00
  0.00000000E+00  0.00000000E+00  0.00000000E+00
  0.00000000E+00  0.00000000E+00  0.00000000E+00
  0.00000000E+00  0.00000000E+00  0.00000000E+00
  0.00000000E+00  0.00000000E+00  0.00000000E+00
  0.00000000E+00  0.00000000E+00  0.00000000E+00
  0.00000000E+00  0.00000000E+00  0.00000000E+00
  0.00000000E+00  0.00000000E+00  0.00000000E+00
  0.00000000E+00  0.00000000E+00  0.00000000E+00
  0.00000000E+00  0.00000000E+00  0.00000000E+00
  0.00000000E+00  0.00000000E+00  0.00000000E+00
  0.00000000E+00  0.00000000E+00  0.00000000E+00
  0.00000000E+00  0.00000000E+00  0.00000000E+00
  0.00000000E+00  0.00000000E+00  0.00000000E+00
  0.00000000E+00  0.00000000E+00  0.00000000E+00
  0.00000000E+00  0.00000000E+00  0.00000000E+00
  0.00000000E+00  0.00000000E+00  0.00000000E+00
  0.00000000E+00  0.00000000E+00  0.00000000E+00
  0.00000000E+00  0.00000000E+00  0.00000000E+00
  0.00000000E+00  0.00000000E+00  0.00000000E+00
  0.00000000E+00  0.00000000E+00  0.00000000E+00
  0.00000000E+00  0.00000000E+00  0.00000000E+00
