Mo S  H  C  H  N                        
   1.00000000000000     
     7.9113990000000003  -13.7029440000000005    0.0000000000000000
     7.9113990000000003   13.7029440000000005    0.0000000000000000
     0.0000000000000000    0.0000000000000000   36.4173130000000000
   Mo   S    C    H    N 
    75   150     6     7     1
Selective dynamics
Direct
  0.9326969399999995  0.6654430700000019  0.4997514499999980   F   F   F
  0.8654418699999978  0.5312775499999985  0.6706279799999990   F   F   F
  0.0661548100000004  0.5326578000000025  0.3297911100000022   F   F   F
  0.0655207499999975  0.5312043899999992  0.6700402499999996   F   F   F
  0.8667860899999980  0.7321492499999991  0.6700221199999987   F   F   F
  0.1326749600000028  0.6654871699999987  0.4996953899999994   F   F   F
  0.8662182200000003  0.3327239700000034  0.3298424500000010   F   F   F
  0.0654834500000021  0.7310400000000000  0.6695881400000019   F   F   F
  0.2639001000000007  0.1299642700000021  0.6680667999999983   F   F   F
  0.9327475199999994  0.0654926500000030  0.4997662700000021   F   F   F
  0.8655421400000022  0.3312321399999973  0.6698594100000008   F   F   F
  0.1328617799999989  0.4656405899999996  0.4997632500000008   F   F   F
  0.0662120100000010  0.7327264700000029  0.3297660400000026   F   F   F
  0.0655272899999986  0.3312958599999973  0.6700063600000021   F   F   F
  0.0661964900000029  0.1326653799999988  0.3298037599999972   F   F   F
  0.1328006999999971  0.2656320500000007  0.4997621899999984   F   F   F
  0.8661043000000035  0.9327141899999987  0.3297542999999976   F   F   F
  0.8657673200000033  0.9318047499999977  0.6695953400000008   F   F   F
  0.0653818299999997  0.1311092899999977  0.6692399200000025   F   F   F
  0.7326894799999976  0.6653833399999981  0.4997738300000023   F   F   F
  0.9326394599999972  0.8653921300000036  0.4997317500000022   F   F   F
  0.8661514899999999  0.5327549900000007  0.3298127899999983   F   F   F
  0.8661892000000008  0.7327398299999998  0.3298054699999966   F   F   F
  0.2662726499999977  0.1328254399999977  0.3297803000000030   F   F   F
  0.3326680099999990  0.0654066299999983  0.4996559800000000   F   F   F
  0.1326937199999989  0.8654711800000001  0.4997055500000016   F   F   F
  0.9327486600000013  0.4654897899999993  0.4997224500000001   F   F   F
  0.0653370699999982  0.9310868199999972  0.6690160100000000   F   F   F
  0.0662009600000033  0.9327507200000013  0.3297091299999977   F   F   F
  0.0661238599999976  0.3326516099999992  0.3298333799999966   F   F   F
  0.5327662700000032  0.2654833200000012  0.4997413399999999   F   F   F
  0.1326662499999998  0.0655024799999993  0.4997069400000029   F   F   F
  0.4629206800000034  0.3260264600000013  0.6675866699999986   F   F   F
  0.2661722699999984  0.3327323199999981  0.3297900000000027   F   F   F
  0.2660153200000011  0.3310765800000013  0.6699132500000005   F   F   F
  0.8656291100000004  0.1314967699999982  0.6695100700000012   F   F   F
  0.8661870800000030  0.1327547100000004  0.3298316300000010   F   F   F
  0.3328869200000000  0.4657032000000001  0.4997332599999993   F   F   F
  0.2661113999999997  0.5327007899999997  0.3297956899999974   F   F   F
  0.2656847200000029  0.5313031199999968  0.6708026299999972   F   F   F
  0.3328405099999969  0.6655887000000006  0.4997596199999990   F   F   F
  0.3327701400000009  0.2655849100000012  0.4997359299999999   F   F   F
  0.6661147900000017  0.7326672399999978  0.3297583200000034   F   F   F
  0.2653214300000002  0.7310206699999995  0.6697157899999979   F   F   F
  0.6657364900000003  0.9317419999999997  0.6696015200000005   F   F   F
  0.6664498900000025  0.7329757600000021  0.6709996700000005   F   F   F
  0.7327255200000024  0.8653934599999998  0.4998130099999969   F   F   F
  0.3327215999999993  0.8655032699999978  0.4996747900000002   F   F   F
  0.2661414900000025  0.9327891000000008  0.3297569200000012   F   F   F
  0.2651323600000026  0.9306263300000026  0.6686161299999966   F   F   F
  0.4662067200000024  0.3327280800000025  0.3297897599999970   F   F   F
  0.2661134299999972  0.7327299600000002  0.3297776100000007   F   F   F
  0.9328140900000008  0.2655766299999982  0.4997318599999971   F   F   F
  0.6661133500000033  0.9326930200000020  0.3298142900000016   F   F   F
  0.5328211499999965  0.0655462499999970  0.4996633000000017   F   F   F
  0.6655791100000029  0.5320638500000000  0.6731431899999974   F   F   F
  0.7327889900000031  0.0654842499999972  0.4997624100000024   F   F   F
  0.6661783999999997  0.5327697199999974  0.3297613900000016   F   F   F
  0.7327368999999990  0.4655025499999965  0.4997778400000001   F   F   F
  0.4660860299999996  0.5326311199999978  0.3297771499999982   F   F   F
  0.4664359900000007  0.5322337899999994  0.6732848400000009   F   F   F
  0.6647391899999987  0.3307731100000026  0.6696571700000007   F   F   F
  0.6662189400000001  0.3327185200000002  0.3298044800000000   F   F   F
  0.5328274399999984  0.6654130900000013  0.4997732799999994   F   F   F
  0.5327195699999976  0.4654559700000007  0.4997198599999990   F   F   F
  0.4651777300000006  0.7321289100000001  0.6701667199999974   F   F   F
  0.7328132299999979  0.2655006600000008  0.4997106799999997   F   F   F
  0.5328471199999995  0.8654889199999970  0.4997590899999977   F   F   F
  0.4660553900000011  0.9326406899999995  0.3298220300000025   F   F   F
  0.4654573700000029  0.9309054699999990  0.6690461800000022   F   F   F
  0.4662435899999977  0.1327010799999968  0.3297903400000024   F   F   F
  0.6654878900000013  0.1309865699999974  0.6691497999999996   F   F   F
  0.6661480300000021  0.1326222499999971  0.3298217999999977   F   F   F
  0.4661637999999968  0.7326741299999995  0.3298191700000004   F   F   F
  0.4656449300000034  0.1296131200000019  0.6680181300000001   F   F   F
  0.5332030300000028  0.4670642900000033  0.6303584799999982   F   F   F
  0.3269852499999999  0.2630073999999993  0.6244322399999972   F   F   F
  0.2662513100000012  0.5323268699999985  0.5428801699999966   F   F   F
  0.3327023000000011  0.4660273599999982  0.3728839300000004   F   F   F
  0.3297027300000011  0.4623115400000017  0.7144702300000034   F   F   F
  0.5307252799999986  0.2609601699999970  0.7115044199999971   F   F   F
  0.4660972900000004  0.5320233899999991  0.5428650899999994   F   F   F
  0.5328759000000004  0.2660432300000010  0.2867549600000032   F   F   F
  0.5352211599999990  0.2623235300000033  0.6243385499999974   F   F   F
  0.9327495599999978  0.8660206200000005  0.2867182099999965   F   F   F
  0.4661311099999992  0.5321886699999965  0.4566103700000000   F   F   F
  0.5327114800000032  0.4660724700000002  0.2867059200000028   F   F   F
  0.0660562400000018  0.7321891200000010  0.5428041899999981   F   F   F
  0.4659926599999977  0.3320652499999994  0.4566212900000011   F   F   F
  0.1332401299999972  0.4648847300000014  0.6271971600000015   F   F   F
  0.1329146300000019  0.2660637199999982  0.3729093199999980   F   F   F
  0.0661149199999968  0.5321447999999974  0.4566067000000018   F   F   F
  0.0661196300000029  0.1322307100000017  0.5428280100000009   F   F   F
  0.1329689100000024  0.0659325399999986  0.3728716000000034   F   F   F
  0.1327713599999995  0.0645114699999993  0.7119196200000033   F   F   F
  0.0660391600000025  0.1322282499999972  0.4566448699999980   F   F   F
  0.1329694799999998  0.0661352799999975  0.2866885099999976   F   F   F
  0.1299673500000011  0.0633583600000023  0.6255449700000000   F   F   F
  0.1327362500000007  0.4658545200000006  0.2867543099999992   F   F   F
  0.0660527499999972  0.3323081899999991  0.5428603699999996   F   F   F
  0.0662027300000005  0.3323580100000000  0.4566844000000003   F   F   F
  0.1328478300000029  0.2660744000000008  0.2867886800000008   F   F   F
  0.1327427800000009  0.2659189199999972  0.6267382300000008   F   F   F
  0.0660755299999991  0.5321903500000005  0.5428133799999983   F   F   F
  0.1328282200000004  0.4660219900000016  0.3728995700000013   F   F   F
  0.1313642799999997  0.4642314299999981  0.7133276599999974   F   F   F
  0.1321026900000035  0.2635885700000031  0.7127293799999990   F   F   F
  0.4661971600000002  0.7320747600000033  0.5428762399999982   F   F   F
  0.3328053700000026  0.6660543899999992  0.2867623699999982   F   F   F
  0.5328520600000033  0.6695165699999990  0.7142680799999965   F   F   F
  0.1327941199999998  0.6659640000000024  0.3728686999999979   F   F   F
  0.9310874199999972  0.8638504500000010  0.6263766200000020   F   F   F
  0.5331136400000034  0.0630073499999995  0.6255351399999967   F   F   F
  0.4660328100000015  0.1321685300000013  0.4565926399999967   F   F   F
  0.5314827500000021  0.0643856800000010  0.7118538900000004   F   F   F
  0.5327744699999997  0.0659581600000010  0.3729151200000018   F   F   F
  0.4659173800000004  0.1319971599999974  0.5427300500000030   F   F   F
  0.3318098499999991  0.8629465100000004  0.6259883299999984   F   F   F
  0.3327518299999994  0.8661345900000015  0.2867054199999969   F   F   F
  0.2659774799999965  0.9321343900000016  0.4565864300000015   F   F   F
  0.3320645299999967  0.8655969100000007  0.7121227399999980   F   F   F
  0.3325236900000021  0.8660500900000017  0.3728801500000003   F   F   F
  0.2660558800000033  0.9321085500000024  0.5427946499999976   F   F   F
  0.3318744299999991  0.6632656999999966  0.6270747399999976   F   F   F
  0.2660601899999974  0.7321409500000015  0.4566127900000012   F   F   F
  0.3317364299999994  0.6656594399999988  0.7133977599999994   F   F   F
  0.3327436100000014  0.6660201700000030  0.3729207900000020   F   F   F
  0.4662600300000008  0.7321653699999970  0.4566985700000004   F   F   F
  0.5327713599999981  0.6659584100000018  0.2867086500000013   F   F   F
  0.5318172599999967  0.6624731599999975  0.6285842400000021   F   F   F
  0.4661441399999972  0.9323290800000023  0.5427338599999983   F   F   F
  0.5328630799999984  0.8660647499999995  0.3729522200000019   F   F   F
  0.5323687200000008  0.8665499800000019  0.7126868799999997   F   F   F
  0.5328589300000033  0.6658633099999989  0.3728828599999972   F   F   F
  0.5329357999999971  0.2659993799999967  0.3728918400000012   F   F   F
  0.4661047100000033  0.3321678599999984  0.5428496800000033   F   F   F
  0.5328271999999997  0.0659353400000029  0.2867681600000012   F   F   F
  0.2661893300000031  0.5323858100000010  0.4566510399999970   F   F   F
  0.3327007299999991  0.4659893999999980  0.2867232999999985   F   F   F
  0.3370338300000029  0.4675435300000004  0.6286622800000004   F   F   F
  0.2659385500000013  0.7321579999999983  0.5427662199999972   F   F   F
  0.5327938100000010  0.8660402399999966  0.2867866899999996   F   F   F
  0.1322754600000025  0.6650682499999974  0.7128394799999995   F   F   F
  0.6660890499999964  0.7320121500000026  0.5429114000000013   F   F   F
  0.3320414599999992  0.0644331499999993  0.7111097599999993   F   F   F
  0.7328233200000013  0.0659683100000023  0.3729355600000019   F   F   F
  0.9329133900000030  0.8662138299999994  0.3728441499999988   F   F   F
  0.9339361600000017  0.8664619600000022  0.7126465500000023   F   F   F
  0.8659170299999985  0.9320601399999973  0.4567019099999996   F   F   F
  0.6661232499999983  0.1321817299999993  0.5427940000000006   F   F   F
  0.9328977400000014  0.2660899600000022  0.3729813100000001   F   F   F
  0.9330399099999980  0.6660830100000013  0.3729127399999967   F   F   F
  0.7322016700000019  0.0652177600000030  0.7124891400000024   F   F   F
  0.9326569600000028  0.0651753799999994  0.7125118299999968   F   F   F
  0.7337018599999965  0.8677675400000027  0.7131569299999967   F   F   F
  0.7327041500000034  0.8659662900000028  0.3728566500000028   F   F   F
  0.7317006800000030  0.8636930099999987  0.6268537699999966   F   F   F
  0.8661704399999975  0.5321455500000026  0.5428775700000017   F   F   F
  0.6661868799999979  0.9321842499999988  0.5428768599999998   F   F   F
  0.9328971199999997  0.4661344800000008  0.3729082199999993   F   F   F
  0.9324244100000029  0.4639737099999975  0.7132042200000014   F   F   F
  0.7327137799999974  0.8660383899999999  0.2867239200000000   F   F   F
  0.6662481799999965  0.1321482600000011  0.4566069500000012   F   F   F
  0.7328504899999969  0.0659991300000016  0.2867935399999979   F   F   F
  0.7326480999999986  0.0645519999999990  0.6262504899999968   F   F   F
  0.6662299700000034  0.9321434699999998  0.4566950999999974   F   F   F
  0.6662017399999982  0.3321036299999988  0.5428498300000015   F   F   F
  0.7327841600000013  0.2659502099999997  0.3728930500000018   F   F   F
  0.7312638900000009  0.2636278900000021  0.7125353899999993   F   F   F
  0.8660781000000027  0.1321689500000005  0.4566843899999995   F   F   F
  0.8661949399999996  0.3321468700000024  0.4566150100000001   F   F   F
  0.9312431199999978  0.6632871300000005  0.6268977699999994   F   F   F
  0.9328766599999979  0.6661037499999977  0.2867284399999974   F   F   F
  0.7329679400000016  0.2659814599999990  0.2867816899999980   F   F   F
  0.7329395100000013  0.2655280399999995  0.6265174999999985   F   F   F
  0.8659969699999975  0.7321313899999992  0.4566488800000030   F   F   F
  0.6661399500000016  0.3322407400000031  0.4566673100000003   F   F   F
  0.9318179099999994  0.2640837900000009  0.7128863000000010   F   F   F
  0.8660927199999975  0.9320049700000013  0.5428653900000029   F   F   F
  0.9328595500000033  0.0661546199999989  0.2867469199999988   F   F   F
  0.9318890300000006  0.0647807699999987  0.6262919699999969   F   F   F
  0.9336972199999991  0.6656695300000024  0.7132237100000012   F   F   F
  0.8660174999999981  0.5321489000000028  0.4566734100000006   F   F   F
  0.0660014500000016  0.7322148900000016  0.4566150799999988   F   F   F
  0.7303410299999982  0.6623802599999991  0.6284847800000009   F   F   F
  0.6662255800000024  0.7322119000000028  0.4566715200000004   F   F   F
  0.1327702900000035  0.8661654400000032  0.3728309099999976   F   F   F
  0.1329304899999996  0.8654027799999965  0.7120802600000005   F   F   F
  0.0659204900000035  0.9320927300000008  0.4566414199999968   F   F   F
  0.1329298699999981  0.8660232599999985  0.2866750999999965   F   F   F
  0.1311234699999986  0.8632163199999994  0.6258913899999996   F   F   F
  0.2661278899999999  0.1321776500000027  0.5427229800000006   F   F   F
  0.1327466400000006  0.6659481399999976  0.2867164700000018   F   F   F
  0.0659121899999988  0.9320365600000002  0.5427731600000030   F   F   F
  0.3329502699999977  0.0660684200000006  0.3728741700000029   F   F   F
  0.3329647500000021  0.0661877499999975  0.2867323899999974   F   F   F
  0.3311544700000013  0.0630085399999985  0.6251309900000024   F   F   F
  0.2663362899999981  0.3324933500000000  0.5428235799999968   F   F   F
  0.3328210000000026  0.2661633100000031  0.3729043000000019   F   F   F
  0.3300465499999987  0.2608535299999986  0.7116197499999970   F   F   F
  0.2661827100000025  0.3323814800000022  0.4566838599999983   F   F   F
  0.3329459400000019  0.2662123599999973  0.2867160099999992   F   F   F
  0.2660497099999972  0.1322265700000003  0.4566280100000029   F   F   F
  0.1319421999999975  0.6637904099999972  0.6266512300000002   F   F   F
  0.4661941700000014  0.9322100099999985  0.4566100899999981   F   F   F
  0.5329207400000016  0.4660770999999997  0.3728602899999984   F   F   F
  0.7365891299999986  0.6693343700000013  0.7142101499999995   F   F   F
  0.7327376100000008  0.6661104100000016  0.3728998599999969   F   F   F
  0.9328182599999976  0.4660962100000033  0.2867880000000014   F   F   F
  0.9317798100000018  0.4650141999999987  0.6270906900000027   F   F   F
  0.9327203100000004  0.2653930000000030  0.6266576700000002   F   F   F
  0.8660809000000000  0.3321308599999995  0.5428029999999993   F   F   F
  0.9328312999999965  0.2660824900000022  0.2867699700000017   F   F   F
  0.8660071299999997  0.7320634200000028  0.5428425899999993   F   F   F
  0.7303363700000033  0.4674540099999972  0.6284347100000004   F   F   F
  0.7328051699999989  0.4659756499999972  0.2867385400000018   F   F   F
  0.6661067399999964  0.5321270000000026  0.4566621900000030   F   F   F
  0.7325498900000014  0.4621458900000022  0.7142649899999967   F   F   F
  0.7327749000000024  0.4661327999999968  0.3729321100000007   F   F   F
  0.8661333399999974  0.1323099900000031  0.5428250699999992   F   F   F
  0.9326802100000007  0.0659040899999965  0.3728871499999968   F   F   F
  0.6658801199999971  0.5320320200000026  0.5428860499999999   F   F   F
  0.5323736699999984  0.8634969800000007  0.6263967599999987   F   F   F
  0.7329092299999971  0.6661389300000025  0.2867164700000018   F   F   F
  0.5436541462371043  0.4880871449172959  0.7257211640165462   T   T   T
  0.5655537098957782  0.5348754834245372  0.7727900807398802   T   T   T
  0.6450198598555131  0.5415959468093868  0.7924356754769396   T   T   T
  0.4976652862068358  0.5560101865740856  0.8293286844612539   T   T   T
  0.6508502509398858  0.5556789992928813  0.8302273703177357   T   T   T
  0.5769597994414971  0.5624188372542517  0.8493966099014588   T   T   T
  0.4918220063118079  0.5420649194972786  0.7915698472934269   T   T   T
  0.5361722915309218  0.5924887327195038  0.8993144160842734   T   T   T
  0.4919969366167047  0.3849033697164972  0.7233966635179306   T   T   T
  0.6442821906954556  0.5923799079365112  0.9000355366373106   T   T   T
  0.7024645762726277  0.5352399227010035  0.7783045809558879   T   T   T
  0.4397472308793743  0.5613318150397686  0.8436784602366034   T   T   T
  0.4290114003742720  0.5360337698081437  0.7767476048548203   T   T   T
  0.7130584023252300  0.5607301435201453  0.8453220291555302   T   T   T
  0.5800335653683514  0.5711628417563129  0.8870934216047273   T   T   T
 
  0.00000000E+00  0.00000000E+00  0.00000000E+00
  0.00000000E+00  0.00000000E+00  0.00000000E+00
  0.00000000E+00  0.00000000E+00  0.00000000E+00
  0.00000000E+00  0.00000000E+00  0.00000000E+00
  0.00000000E+00  0.00000000E+00  0.00000000E+00
  0.00000000E+00  0.00000000E+00  0.00000000E+00
  0.00000000E+00  0.00000000E+00  0.00000000E+00
  0.00000000E+00  0.00000000E+00  0.00000000E+00
  0.00000000E+00  0.00000000E+00  0.00000000E+00
  0.00000000E+00  0.00000000E+00  0.00000000E+00
  0.00000000E+00  0.00000000E+00  0.00000000E+00
  0.00000000E+00  0.00000000E+00  0.00000000E+00
  0.00000000E+00  0.00000000E+00  0.00000000E+00
  0.00000000E+00  0.00000000E+00  0.00000000E+00
  0.00000000E+00  0.00000000E+00  0.00000000E+00
  0.00000000E+00  0.00000000E+00  0.00000000E+00
  0.00000000E+00  0.00000000E+00  0.00000000E+00
  0.00000000E+00  0.00000000E+00  0.00000000E+00
  0.00000000E+00  0.00000000E+00  0.00000000E+00
  0.00000000E+00  0.00000000E+00  0.00000000E+00
  0.00000000E+00  0.00000000E+00  0.00000000E+00
  0.00000000E+00  0.00000000E+00  0.00000000E+00
  0.00000000E+00  0.00000000E+00  0.00000000E+00
  0.00000000E+00  0.00000000E+00  0.00000000E+00
  0.00000000E+00  0.00000000E+00  0.00000000E+00
  0.00000000E+00  0.00000000E+00  0.00000000E+00
  0.00000000E+00  0.00000000E+00  0.00000000E+00
  0.00000000E+00  0.00000000E+00  0.00000000E+00
  0.00000000E+00  0.00000000E+00  0.00000000E+00
  0.00000000E+00  0.00000000E+00  0.00000000E+00
  0.00000000E+00  0.00000000E+00  0.00000000E+00
  0.00000000E+00  0.00000000E+00  0.00000000E+00
  0.00000000E+00  0.00000000E+00  0.00000000E+00
  0.00000000E+00  0.00000000E+00  0.00000000E+00
  0.00000000E+00  0.00000000E+00  0.00000000E+00
  0.00000000E+00  0.00000000E+00  0.00000000E+00
  0.00000000E+00  0.00000000E+00  0.00000000E+00
  0.00000000E+00  0.00000000E+00  0.00000000E+00
  0.00000000E+00  0.00000000E+00  0.00000000E+00
  0.00000000E+00  0.00000000E+00  0.00000000E+00
  0.00000000E+00  0.00000000E+00  0.00000000E+00
  0.00000000E+00  0.00000000E+00  0.00000000E+00
  0.00000000E+00  0.00000000E+00  0.00000000E+00
  0.00000000E+00  0.00000000E+00  0.00000000E+00
  0.00000000E+00  0.00000000E+00  0.00000000E+00
  0.00000000E+00  0.00000000E+00  0.00000000E+00
  0.00000000E+00  0.00000000E+00  0.00000000E+00
  0.00000000E+00  0.00000000E+00  0.00000000E+00
  0.00000000E+00  0.00000000E+00  0.00000000E+00
  0.00000000E+00  0.00000000E+00  0.00000000E+00
  0.00000000E+00  0.00000000E+00  0.00000000E+00
  0.00000000E+00  0.00000000E+00  0.00000000E+00
  0.00000000E+00  0.00000000E+00  0.00000000E+00
  0.00000000E+00  0.00000000E+00  0.00000000E+00
  0.00000000E+00  0.00000000E+00  0.00000000E+00
  0.00000000E+00  0.00000000E+00  0.00000000E+00
  0.00000000E+00  0.00000000E+00  0.00000000E+00
  0.00000000E+00  0.00000000E+00  0.00000000E+00
  0.00000000E+00  0.00000000E+00  0.00000000E+00
  0.00000000E+00  0.00000000E+00  0.00000000E+00
  0.00000000E+00  0.00000000E+00  0.00000000E+00
  0.00000000E+00  0.00000000E+00  0.00000000E+00
  0.00000000E+00  0.00000000E+00  0.00000000E+00
  0.00000000E+00  0.00000000E+00  0.00000000E+00
  0.00000000E+00  0.00000000E+00  0.00000000E+00
  0.00000000E+00  0.00000000E+00  0.00000000E+00
  0.00000000E+00  0.00000000E+00  0.00000000E+00
  0.00000000E+00  0.00000000E+00  0.00000000E+00
  0.00000000E+00  0.00000000E+00  0.00000000E+00
  0.00000000E+00  0.00000000E+00  0.00000000E+00
  0.00000000E+00  0.00000000E+00  0.00000000E+00
  0.00000000E+00  0.00000000E+00  0.00000000E+00
  0.00000000E+00  0.00000000E+00  0.00000000E+00
  0.00000000E+00  0.00000000E+00  0.00000000E+00
  0.00000000E+00  0.00000000E+00  0.00000000E+00
  0.00000000E+00  0.00000000E+00  0.00000000E+00
  0.00000000E+00  0.00000000E+00  0.00000000E+00
  0.00000000E+00  0.00000000E+00  0.00000000E+00
  0.00000000E+00  0.00000000E+00  0.00000000E+00
  0.00000000E+00  0.00000000E+00  0.00000000E+00
  0.00000000E+00  0.00000000E+00  0.00000000E+00
  0.00000000E+00  0.00000000E+00  0.00000000E+00
  0.00000000E+00  0.00000000E+00  0.00000000E+00
  0.00000000E+00  0.00000000E+00  0.00000000E+00
  0.00000000E+00  0.00000000E+00  0.00000000E+00
  0.00000000E+00  0.00000000E+00  0.00000000E+00
  0.00000000E+00  0.00000000E+00  0.00000000E+00
  0.00000000E+00  0.00000000E+00  0.00000000E+00
  0.00000000E+00  0.00000000E+00  0.00000000E+00
  0.00000000E+00  0.00000000E+00  0.00000000E+00
  0.00000000E+00  0.00000000E+00  0.00000000E+00
  0.00000000E+00  0.00000000E+00  0.00000000E+00
  0.00000000E+00  0.00000000E+00  0.00000000E+00
  0.00000000E+00  0.00000000E+00  0.00000000E+00
  0.00000000E+00  0.00000000E+00  0.00000000E+00
  0.00000000E+00  0.00000000E+00  0.00000000E+00
  0.00000000E+00  0.00000000E+00  0.00000000E+00
  0.00000000E+00  0.00000000E+00  0.00000000E+00
  0.00000000E+00  0.00000000E+00  0.00000000E+00
  0.00000000E+00  0.00000000E+00  0.00000000E+00
  0.00000000E+00  0.00000000E+00  0.00000000E+00
  0.00000000E+00  0.00000000E+00  0.00000000E+00
  0.00000000E+00  0.00000000E+00  0.00000000E+00
  0.00000000E+00  0.00000000E+00  0.00000000E+00
  0.00000000E+00  0.00000000E+00  0.00000000E+00
  0.00000000E+00  0.00000000E+00  0.00000000E+00
  0.00000000E+00  0.00000000E+00  0.00000000E+00
  0.00000000E+00  0.00000000E+00  0.00000000E+00
  0.00000000E+00  0.00000000E+00  0.00000000E+00
  0.00000000E+00  0.00000000E+00  0.00000000E+00
  0.00000000E+00  0.00000000E+00  0.00000000E+00
  0.00000000E+00  0.00000000E+00  0.00000000E+00
  0.00000000E+00  0.00000000E+00  0.00000000E+00
  0.00000000E+00  0.00000000E+00  0.00000000E+00
  0.00000000E+00  0.00000000E+00  0.00000000E+00
  0.00000000E+00  0.00000000E+00  0.00000000E+00
  0.00000000E+00  0.00000000E+00  0.00000000E+00
  0.00000000E+00  0.00000000E+00  0.00000000E+00
  0.00000000E+00  0.00000000E+00  0.00000000E+00
  0.00000000E+00  0.00000000E+00  0.00000000E+00
  0.00000000E+00  0.00000000E+00  0.00000000E+00
  0.00000000E+00  0.00000000E+00  0.00000000E+00
  0.00000000E+00  0.00000000E+00  0.00000000E+00
  0.00000000E+00  0.00000000E+00  0.00000000E+00
  0.00000000E+00  0.00000000E+00  0.00000000E+00
  0.00000000E+00  0.00000000E+00  0.00000000E+00
  0.00000000E+00  0.00000000E+00  0.00000000E+00
  0.00000000E+00  0.00000000E+00  0.00000000E+00
  0.00000000E+00  0.00000000E+00  0.00000000E+00
  0.00000000E+00  0.00000000E+00  0.00000000E+00
  0.00000000E+00  0.00000000E+00  0.00000000E+00
  0.00000000E+00  0.00000000E+00  0.00000000E+00
  0.00000000E+00  0.00000000E+00  0.00000000E+00
  0.00000000E+00  0.00000000E+00  0.00000000E+00
  0.00000000E+00  0.00000000E+00  0.00000000E+00
  0.00000000E+00  0.00000000E+00  0.00000000E+00
  0.00000000E+00  0.00000000E+00  0.00000000E+00
  0.00000000E+00  0.00000000E+00  0.00000000E+00
  0.00000000E+00  0.00000000E+00  0.00000000E+00
  0.00000000E+00  0.00000000E+00  0.00000000E+00
  0.00000000E+00  0.00000000E+00  0.00000000E+00
  0.00000000E+00  0.00000000E+00  0.00000000E+00
  0.00000000E+00  0.00000000E+00  0.00000000E+00
  0.00000000E+00  0.00000000E+00  0.00000000E+00
  0.00000000E+00  0.00000000E+00  0.00000000E+00
  0.00000000E+00  0.00000000E+00  0.00000000E+00
  0.00000000E+00  0.00000000E+00  0.00000000E+00
  0.00000000E+00  0.00000000E+00  0.00000000E+00
  0.00000000E+00  0.00000000E+00  0.00000000E+00
  0.00000000E+00  0.00000000E+00  0.00000000E+00
  0.00000000E+00  0.00000000E+00  0.00000000E+00
  0.00000000E+00  0.00000000E+00  0.00000000E+00
  0.00000000E+00  0.00000000E+00  0.00000000E+00
  0.00000000E+00  0.00000000E+00  0.00000000E+00
  0.00000000E+00  0.00000000E+00  0.00000000E+00
  0.00000000E+00  0.00000000E+00  0.00000000E+00
  0.00000000E+00  0.00000000E+00  0.00000000E+00
  0.00000000E+00  0.00000000E+00  0.00000000E+00
  0.00000000E+00  0.00000000E+00  0.00000000E+00
  0.00000000E+00  0.00000000E+00  0.00000000E+00
  0.00000000E+00  0.00000000E+00  0.00000000E+00
  0.00000000E+00  0.00000000E+00  0.00000000E+00
  0.00000000E+00  0.00000000E+00  0.00000000E+00
  0.00000000E+00  0.00000000E+00  0.00000000E+00
  0.00000000E+00  0.00000000E+00  0.00000000E+00
  0.00000000E+00  0.00000000E+00  0.00000000E+00
  0.00000000E+00  0.00000000E+00  0.00000000E+00
  0.00000000E+00  0.00000000E+00  0.00000000E+00
  0.00000000E+00  0.00000000E+00  0.00000000E+00
  0.00000000E+00  0.00000000E+00  0.00000000E+00
  0.00000000E+00  0.00000000E+00  0.00000000E+00
  0.00000000E+00  0.00000000E+00  0.00000000E+00
  0.00000000E+00  0.00000000E+00  0.00000000E+00
  0.00000000E+00  0.00000000E+00  0.00000000E+00
  0.00000000E+00  0.00000000E+00  0.00000000E+00
  0.00000000E+00  0.00000000E+00  0.00000000E+00
  0.00000000E+00  0.00000000E+00  0.00000000E+00
  0.00000000E+00  0.00000000E+00  0.00000000E+00
  0.00000000E+00  0.00000000E+00  0.00000000E+00
  0.00000000E+00  0.00000000E+00  0.00000000E+00
  0.00000000E+00  0.00000000E+00  0.00000000E+00
  0.00000000E+00  0.00000000E+00  0.00000000E+00
  0.00000000E+00  0.00000000E+00  0.00000000E+00
  0.00000000E+00  0.00000000E+00  0.00000000E+00
  0.00000000E+00  0.00000000E+00  0.00000000E+00
  0.00000000E+00  0.00000000E+00  0.00000000E+00
  0.00000000E+00  0.00000000E+00  0.00000000E+00
  0.00000000E+00  0.00000000E+00  0.00000000E+00
  0.00000000E+00  0.00000000E+00  0.00000000E+00
  0.00000000E+00  0.00000000E+00  0.00000000E+00
  0.00000000E+00  0.00000000E+00  0.00000000E+00
  0.00000000E+00  0.00000000E+00  0.00000000E+00
  0.00000000E+00  0.00000000E+00  0.00000000E+00
  0.00000000E+00  0.00000000E+00  0.00000000E+00
  0.00000000E+00  0.00000000E+00  0.00000000E+00
  0.00000000E+00  0.00000000E+00  0.00000000E+00
  0.00000000E+00  0.00000000E+00  0.00000000E+00
  0.00000000E+00  0.00000000E+00  0.00000000E+00
  0.00000000E+00  0.00000000E+00  0.00000000E+00
  0.00000000E+00  0.00000000E+00  0.00000000E+00
  0.00000000E+00  0.00000000E+00  0.00000000E+00
  0.00000000E+00  0.00000000E+00  0.00000000E+00
  0.00000000E+00  0.00000000E+00  0.00000000E+00
  0.00000000E+00  0.00000000E+00  0.00000000E+00
  0.00000000E+00  0.00000000E+00  0.00000000E+00
  0.00000000E+00  0.00000000E+00  0.00000000E+00
  0.00000000E+00  0.00000000E+00  0.00000000E+00
  0.00000000E+00  0.00000000E+00  0.00000000E+00
  0.00000000E+00  0.00000000E+00  0.00000000E+00
  0.00000000E+00  0.00000000E+00  0.00000000E+00
  0.00000000E+00  0.00000000E+00  0.00000000E+00
  0.00000000E+00  0.00000000E+00  0.00000000E+00
  0.00000000E+00  0.00000000E+00  0.00000000E+00
  0.00000000E+00  0.00000000E+00  0.00000000E+00
  0.00000000E+00  0.00000000E+00  0.00000000E+00
  0.00000000E+00  0.00000000E+00  0.00000000E+00
  0.00000000E+00  0.00000000E+00  0.00000000E+00
  0.00000000E+00  0.00000000E+00  0.00000000E+00
  0.00000000E+00  0.00000000E+00  0.00000000E+00
  0.00000000E+00  0.00000000E+00  0.00000000E+00
  0.00000000E+00  0.00000000E+00  0.00000000E+00
  0.00000000E+00  0.00000000E+00  0.00000000E+00
  0.00000000E+00  0.00000000E+00  0.00000000E+00
  0.00000000E+00  0.00000000E+00  0.00000000E+00
 -0.99378976E-02  0.59358715E-02  0.39652592E-01
  0.10785312E+00  0.60573803E-01 -0.44178434E-01
  0.49441993E-01  0.25154962E-01 -0.26246577E-01
  0.58544960E-02  0.14675739E-02 -0.21537503E-01
  0.60123382E-02 -0.94027879E-03 -0.21886579E-01
  0.87701984E-03 -0.21009924E-02 -0.22843289E-01
  0.50550316E-01  0.27062246E-01 -0.23721412E-01
 -0.11981251E-01 -0.89136753E-02 -0.22869549E-01
 -0.22506452E+00 -0.12483715E+00 -0.94672311E+00
 -0.11718917E-01 -0.10085377E-01 -0.23520867E-01
  0.36948552E-01  0.21736322E-01 -0.30139862E-01
 -0.10579514E-01 -0.69683434E-02 -0.19306595E-01
  0.43398258E-01  0.20503262E-01 -0.27628663E-01
 -0.10500746E-01 -0.10833698E-01 -0.21757336E-01
 -0.11937526E-01 -0.13140607E-01 -0.21368365E-01
