Mo S  H  C  F  H                        
   1.00000000000000     
     7.9113990000000003  -13.7029440000000005    0.0000000000000000
     7.9113990000000003   13.7029440000000005    0.0000000000000000
     0.0000000000000000    0.0000000000000000   36.4173130000000000
   Mo   S    H    C    F 
    75   150     5     6     1
Direct
  0.1312905637860962  0.0627232192549053  0.4998018250349317
  0.6650032006102370  0.7305252899236698  0.6708019330989758
  0.2636786140334100  0.9282832535490853  0.6690657103279064
  0.2653917687547795  0.9303430053258216  0.3299112463297797
  0.3312820812576493  0.8625911261870463  0.4998398351458452
  0.7314929710605014  0.8627266749953408  0.4998463285388786
  0.6653379232541708  0.9304203762357248  0.3299400000313341
  0.6641010947746847  0.9288512162710039  0.6696053883168508
  0.2634024263432569  0.7283116858057788  0.6695406228605848
  0.2653012197339744  0.7303079675876490  0.3298892373672532
  0.6652342912153695  0.7303990256555546  0.3299355646839257
  0.3313593720603131  0.6626921721439992  0.4999502295329136
  0.2639853851528738  0.5288829915910236  0.6707581011598625
  0.2654101981875638  0.5303702073225700  0.3298919312920460
  0.3315293606718374  0.4628675015200597  0.4999182371430532
  0.8653368681378413  0.1303524841340873  0.3298958608033508
  0.8642946948258747  0.1286498788392948  0.6698177790296127
  0.2657516296934354  0.3292770964060913  0.6708356494278598
  0.2653740813521709  0.3303477742398503  0.3299396001569807
  0.3313999683730716  0.2627390663606800  0.4999680554923762
  0.9314244725179086  0.2626785738736285  0.4999528223693540
  0.7314108663067349  0.0626671339159311  0.4998621720175686
  0.5313356864354436  0.0625934966836227  0.4997980667672491
  0.4653836024799203  0.1303967678290766  0.3299024303321738
  0.4641539543559029  0.1269150718077104  0.6686119209783933
  0.6654280003860223  0.1304618230855889  0.3299031780015190
  0.6640009705260874  0.1280420858002545  0.6692720843221964
  0.4637503571547849  0.9282223917145034  0.6690482079241644
  0.4653687136356391  0.9303657085091485  0.3299865305510188
  0.5313325192081483  0.8625893116107061  0.4998686332559604
  0.7313791634886382  0.2626870117795975  0.4999026954914632
  0.4631100334503438  0.7297706189888545  0.6695641767842829
  0.4653173110930943  0.7303453590935324  0.3299385500031041
  0.5315035746537583  0.6627445134824583  0.4999231496880954
  0.6653810918203156  0.3303756858177344  0.3298694083509667
  0.6629369997414191  0.3263520758863330  0.6693234258666856
  0.4660112750097301  0.5309859573431156  0.6741610066482228
  0.4653776776271092  0.5303467275886692  0.3299524830167638
  0.5314378716796067  0.4627014815248764  0.4999349631710371
  0.7313465406320213  0.4627645051786247  0.4998989542725664
  0.6653711824755806  0.5304106578333388  0.3299527415440028
  0.6621055491633011  0.5287466453506017  0.6736192817772876
  0.4655999353335131  0.3226901896938221  0.6664589065600363
  0.4654593711484474  0.3303908984492432  0.3299189170513430
  0.5313733892763122  0.2626648344896347  0.4999494598075993
  0.7313815560565086  0.6626994713302368  0.4998999580034784
  0.8654192876477763  0.3303954803103067  0.3299313492384593
  0.8639482807912955  0.3281787758073098  0.6700082300049405
  0.9314451389782471  0.0627319665629987  0.4998088942143096
  0.2642658428758321  0.1289360461765478  0.6690991030029114
  0.0637690416104999  0.7283251203060884  0.6696991006715685
  0.0653997818375849  0.7303233106185369  0.3298778882201392
  0.1312218838899405  0.6626992866222521  0.4998928397410687
  0.9312556187946912  0.6626976518545382  0.4998756982022501
  0.8655667296809455  0.7296989751329527  0.6700156926074777
  0.0635135473402716  0.5283068012196031  0.6700640494497559
  0.0653760862907235  0.5303131118742294  0.3299480264322205
  0.8633646626166701  0.5283185100404985  0.6706501199119270
  0.1314185182500901  0.4627898295492404  0.4999622224428483
  0.0643741598475189  0.3284948876738947  0.6704038252280597
  0.0653706663839729  0.3303132246558733  0.3299409389228553
  0.1315233561239880  0.2628733091247022  0.4999207372076216
  0.8652725555384849  0.9302918540932794  0.3299584516111982
  0.8646712757647163  0.9293027965539415  0.6698504185118379
  0.0646949956151209  0.1288937043447024  0.6699207276808241
  0.0652865556412031  0.1302595253599093  0.3299243654913648
  0.9313193271315182  0.8626039232530209  0.4997736767055422
  0.8653829861794596  0.5303511155209019  0.3299601273061035
  0.8652961521255480  0.7303297298516945  0.3299666303649937
  0.2653225665442405  0.1303749232443186  0.3298817949181767
  0.3312771458162729  0.0625955800866686  0.4998024404040756
  0.1312742140408048  0.8627155871409369  0.4997816373547708
  0.9312440210934914  0.4626546233331360  0.4999266670062040
  0.0644889132198132  0.9291334289940347  0.6695275120534776
  0.0653375904556499  0.9302610363707913  0.3299167234684113
  0.6646989609085624  0.9292610294247735  0.4567803777516227
  0.6648798390199228  0.3295101031349052  0.5429873778228403
  0.7320977033840169  0.2638580449444826  0.3730014465161509
  0.7297056954967793  0.2605622193884011  0.7126436236739473
  0.8647394084055966  0.1294489025064658  0.4567806896964344
  0.8646893277198991  0.3293221744714696  0.4568433526634065
  0.9295042378415227  0.6605327193262697  0.6269917713162753
  0.9320208009872595  0.6637382247630618  0.2868911531229763
  0.7321953876949331  0.2638067256098123  0.2868503208091041
  0.7318357781421290  0.2621362193229160  0.6264013878224317
  0.8645867248599142  0.7292341108787578  0.4567247062409091
  0.6647180997599430  0.3294726072594352  0.4568422668925726
  0.9303100280631849  0.2613058880439885  0.7131819078002757
  0.8649047016466992  0.9293434478942962  0.5428740092218316
  0.9318561765478021  0.0634979814125517  0.2868734332639808
  0.9313998217838113  0.0625634573344573  0.6267144992689599
  0.9316572929218846  0.6625114249645067  0.7132560513750339
  0.7314435623954494  0.0618523774469732  0.6264219211548299
  0.7320987195118457  0.0637296120913179  0.2868527435548852
  0.6648436237438144  0.1294575154211861  0.4567509939531742
  0.7303548873258713  0.0619998791289431  0.7126125839093144
  0.7320893453949957  0.0638770334461255  0.3729951359181082
  0.9320345238154992  0.8636441178668401  0.3730799851305174
  0.9324833167274476  0.8636762006779101  0.7129030040738419
  0.8647824620876966  0.9294272468135851  0.4566965986626512
  0.6646035746443395  0.1292336756076517  0.5429291124412479
  0.9319023340106507  0.2635456342904831  0.3730011255880264
  0.9322201359636542  0.6637976281291155  0.3730228253472992
  0.9312462602862205  0.0624375222641540  0.7128975164779285
  0.7319857121976997  0.8637986048374970  0.2868749518980547
  0.7321562293926670  0.8647989358275417  0.7132711017743197
  0.7319380749408224  0.8637228363593638  0.3730552950753667
  0.7309330212523758  0.8615861699154463  0.6268880445545985
  0.8645967544832703  0.5294169833312102  0.5429923328324702
  0.6647558103244705  0.9292951256688725  0.5429204689514907
  0.9320667263318539  0.4636516518029345  0.3730899550628654
  0.9303950712279516  0.4612172600401259  0.7132361546611397
  0.8646373679072056  0.5293443093483956  0.4568220091910697
  0.7289367513590435  0.6594080151027065  0.6285557823111081
  0.7319485095132874  0.6637487696446757  0.2869084538571122
  0.6648054074351329  0.7294252493688370  0.4568112744915159
  0.7360357342089251  0.6671812941325711  0.7135408111677730
  0.7318858545866259  0.6638178005243931  0.3730486320004049
  0.6649064250265327  0.7295059679624963  0.5430073415248851
  0.9321415652713123  0.4637070245887749  0.2869197326784564
  0.9294696250997129  0.4618409571298457  0.6271748399046810
  0.9316750823754044  0.2624031383207134  0.6269933060715822
  0.8646860855964773  0.3293619106688533  0.5430330513700469
  0.9320446581466437  0.2637268527244797  0.2868685993865561
  0.8646387108257307  0.7293560617657308  0.5429958337487732
  0.7282351067708217  0.4644209495041696  0.6284264526185902
  0.7320414291703647  0.4637636565672200  0.2868875226405819
  0.6646335490938058  0.5293887364520664  0.4568222717672117
  0.7301476133213030  0.4592080608895898  0.7140420329370525
  0.7318639817814490  0.4634884150246938  0.3730143849592912
  0.8647332324275142  0.1291276018045165  0.5429996264734085
  0.9318609068547212  0.0636784137900869  0.3730294492991386
  0.6647307121268997  0.5294003330378146  0.5430016944146173
  0.5309468899750592  0.8615127816949089  0.6261168991873315
  0.5320793779688950  0.4636533850723546  0.3730634503913928
  0.4646078214202454  0.9291830154658853  0.4567350596825627
  0.1296924897946374  0.6608542835827155  0.6265833983077240
  0.0644937931164083  0.9292873919081274  0.5428453142132806
  0.1320136823803078  0.8635660298091946  0.3729946074301441
  0.1312450347668443  0.8623490829653840  0.7124120173436148
  0.0646638461000619  0.9294656402615717  0.4566533033924554
  0.1321680609821563  0.8637171461423937  0.2868166587141823
  0.1298427123786272  0.8612893124806360  0.6263020721818559
  0.2644539841266103  0.1290451125092783  0.5429349256951097
  0.1319836647570192  0.6635226786131003  0.2868311343224205
  0.3319856075989926  0.0637573442514056  0.3729725135091211
  0.2647529369974709  0.1295072498644484  0.4567821837363016
  0.3319101564295452  0.0637717812918241  0.2868548491221075
  0.3298982406124585  0.0613275769848235  0.6258616159955330
  0.2648655127562762  0.3296690736356294  0.5430294029557937
  0.3320742409260181  0.2636049646822196  0.3729937749503199
  0.3365550794410254  0.2636300407413506  0.7119301095808747
  0.2649490016212969  0.3295580093935079  0.4568540090490638
  0.3322075620056860  0.2637981724033200  0.2868708061557247
  0.3309457386866830  0.0616923455935296  0.7118683773947305
  0.0645877052699460  0.7293250151498878  0.4567612243315635
  0.1306703742843064  0.6622240789405240  0.7128105159124297
  0.1319791040892188  0.6636298834420334  0.3730125190176033
  0.0646739831255774  0.1293250928888995  0.5429169120798205
  0.1321315378545335  0.0636384587447827  0.3729984075452389
  0.1321693530127723  0.0625265920900538  0.7126470597701248
  0.0648916073160285  0.1297436016233013  0.4567335742616098
  0.1318870923503867  0.0634956439274739  0.2868498331418390
  0.1303321358503693  0.0622517823095639  0.6263816146607782
  0.0648896440243188  0.3294580631693064  0.5430626125628337
  0.1319702576280110  0.2635605682252382  0.3730611510893069
  0.1312086821204158  0.2613027646185235  0.7134043057800391
  0.0648207499818166  0.3295363572002505  0.4568695356096345
  0.1320581274483706  0.2636835616894615  0.2868961999486874
  0.1326895008311131  0.2633972600541414  0.6274392133056055
  0.0645618497668728  0.5293857646862564  0.5429973637996224
  0.1322353602936063  0.4637874347792210  0.3730165757340911
  0.1297786543175848  0.4619026989266024  0.7134256717922491
  0.0645457649951510  0.5293202969004632  0.4568519538157170
  0.1320244238493584  0.4636675962060496  0.2868793848029525
  0.1310620953190184  0.4615605457763683  0.6273442759366804
  0.0645262366042910  0.7294764128236105  0.5429255509931682
  0.3283193705813481  0.2619550701789484  0.6255768173324980
  0.2648357644494640  0.5294527069519096  0.5430787712621230
  0.3319981250192968  0.4637814790081761  0.3730295053707302
  0.3284282382113360  0.4614192678641161  0.7146344019909434
  0.5292495440679147  0.2592885403036145  0.7117894198241775
  0.4647088471904795  0.3293124354907458  0.4568643726697302
  0.5320168386556803  0.2636652642478801  0.2868120916878165
  0.5329239033124968  0.2584960676483350  0.6244485769331536
  0.4648794872954818  0.5294431043405852  0.5430047512875398
  0.9318949359087968  0.8635753435568143  0.2869001380731240
  0.4649637726377424  0.5294570270950373  0.4568399880282797
  0.5321190557356823  0.4637822065362688  0.2868887298505933
  0.5317113577257971  0.4654491217573951  0.6294550426894456
  0.4648131237337429  0.7293031542739121  0.5430258327371008
  0.5318950731923655  0.6636139333088722  0.3730633144995371
  0.5305927385661166  0.6697622620588611  0.7133234822073431
  0.4646682346293244  0.7292009442921258  0.4568234677267834
  0.5318655909908115  0.6636339192412772  0.2868731172915832
  0.5303583233532598  0.6595569335039562  0.6283854756222883
  0.4646535550212686  0.9292931686685640  0.5429162310650457
  0.5320368673327226  0.8635742932278321  0.3730690798158540
  0.5301980197418594  0.8632060613734820  0.7125072893221117
  0.5321929445791184  0.2637703015953110  0.3729953276774249
  0.5319938099263414  0.8637125259230626  0.2868956071936469
  0.4647510408891473  0.3293803505139655  0.5430919866238183
  0.5320876163175184  0.0637147429811945  0.2868831938421498
  0.2647402390327241  0.5294648739803397  0.4568544038638084
  0.3321632247786625  0.4636678505480960  0.2868701458433024
  0.3352878124119096  0.4643039309656660  0.6290624419370278
  0.2644899644905858  0.7293426300219383  0.5429890815150308
  0.3318907851320274  0.6636677343686066  0.3729886978819649
  0.3301900249297564  0.6633519275087354  0.7131189879101141
  0.2645444663385031  0.7291845836168177  0.4568027053011711
  0.3320672828331092  0.6636780612449396  0.2868478270879495
  0.3295251088733748  0.6602771170330861  0.6267207230468557
  0.2645576675306973  0.9292330643205416  0.5428662661485675
  0.3318319624314583  0.8634485099450511  0.3730632952176868
  0.3304659045496165  0.8623414718813949  0.7122086499758398
  0.2646597800959725  0.9292650469924379  0.4567070577677987
  0.3321031842005837  0.8637175706931378  0.2868877961166217
  0.3299041933585500  0.8610081421469454  0.6261036050741263
  0.4644960697226914  0.1289988278785010  0.5428936666260349
  0.5322023345386889  0.0639420493900119  0.3730550227436615
  0.5301688423038303  0.0610147094277901  0.7121135510782085
  0.4647543717948264  0.1294915072379109  0.4567545197070988
  0.5311404496257113  0.0605536953551658  0.6257648207328742
  0.9305675818593641  0.8620386451808434  0.6266190640433679
  0.5377244968007999  0.4902274075835911  0.7315035756154941
  0.5496684832829221  0.4134589764802105  0.6945492129314328
  0.6487523214514064  0.7071060505231178  0.7650811446209373
  0.6792270544658485  0.7540070408414340  0.8301396110429667
  0.5164653514980682  0.4523945858676254  0.8627713319709925
  0.4845771939632961  0.4022908416706311  0.7966892453755866
  0.5623663447310749  0.5502980896492486  0.7758400517648242
  0.6179938304069028  0.6495333304046165  0.7856041889602223
  0.5438901967016400  0.5065908815921922  0.8408454534527376
  0.6361612576890224  0.6772735458812253  0.8223830329070159
  0.5988129174646863  0.6053589865286465  0.8492752122572296
  0.5262357901673443  0.4796208146051732  0.8040102584433870
  0.6171484430582679  0.6326076971361115  0.8851531554788965
 
  0.00000000E+00  0.00000000E+00  0.00000000E+00
  0.00000000E+00  0.00000000E+00  0.00000000E+00
  0.00000000E+00  0.00000000E+00  0.00000000E+00
  0.00000000E+00  0.00000000E+00  0.00000000E+00
  0.00000000E+00  0.00000000E+00  0.00000000E+00
  0.00000000E+00  0.00000000E+00  0.00000000E+00
  0.00000000E+00  0.00000000E+00  0.00000000E+00
  0.00000000E+00  0.00000000E+00  0.00000000E+00
  0.00000000E+00  0.00000000E+00  0.00000000E+00
  0.00000000E+00  0.00000000E+00  0.00000000E+00
  0.00000000E+00  0.00000000E+00  0.00000000E+00
  0.00000000E+00  0.00000000E+00  0.00000000E+00
  0.00000000E+00  0.00000000E+00  0.00000000E+00
  0.00000000E+00  0.00000000E+00  0.00000000E+00
  0.00000000E+00  0.00000000E+00  0.00000000E+00
  0.00000000E+00  0.00000000E+00  0.00000000E+00
  0.00000000E+00  0.00000000E+00  0.00000000E+00
  0.00000000E+00  0.00000000E+00  0.00000000E+00
  0.00000000E+00  0.00000000E+00  0.00000000E+00
  0.00000000E+00  0.00000000E+00  0.00000000E+00
  0.00000000E+00  0.00000000E+00  0.00000000E+00
  0.00000000E+00  0.00000000E+00  0.00000000E+00
  0.00000000E+00  0.00000000E+00  0.00000000E+00
  0.00000000E+00  0.00000000E+00  0.00000000E+00
  0.00000000E+00  0.00000000E+00  0.00000000E+00
  0.00000000E+00  0.00000000E+00  0.00000000E+00
  0.00000000E+00  0.00000000E+00  0.00000000E+00
  0.00000000E+00  0.00000000E+00  0.00000000E+00
  0.00000000E+00  0.00000000E+00  0.00000000E+00
  0.00000000E+00  0.00000000E+00  0.00000000E+00
  0.00000000E+00  0.00000000E+00  0.00000000E+00
  0.00000000E+00  0.00000000E+00  0.00000000E+00
  0.00000000E+00  0.00000000E+00  0.00000000E+00
  0.00000000E+00  0.00000000E+00  0.00000000E+00
  0.00000000E+00  0.00000000E+00  0.00000000E+00
  0.00000000E+00  0.00000000E+00  0.00000000E+00
  0.00000000E+00  0.00000000E+00  0.00000000E+00
  0.00000000E+00  0.00000000E+00  0.00000000E+00
  0.00000000E+00  0.00000000E+00  0.00000000E+00
  0.00000000E+00  0.00000000E+00  0.00000000E+00
  0.00000000E+00  0.00000000E+00  0.00000000E+00
  0.00000000E+00  0.00000000E+00  0.00000000E+00
  0.00000000E+00  0.00000000E+00  0.00000000E+00
  0.00000000E+00  0.00000000E+00  0.00000000E+00
  0.00000000E+00  0.00000000E+00  0.00000000E+00
  0.00000000E+00  0.00000000E+00  0.00000000E+00
  0.00000000E+00  0.00000000E+00  0.00000000E+00
  0.00000000E+00  0.00000000E+00  0.00000000E+00
  0.00000000E+00  0.00000000E+00  0.00000000E+00
  0.00000000E+00  0.00000000E+00  0.00000000E+00
  0.00000000E+00  0.00000000E+00  0.00000000E+00
  0.00000000E+00  0.00000000E+00  0.00000000E+00
  0.00000000E+00  0.00000000E+00  0.00000000E+00
  0.00000000E+00  0.00000000E+00  0.00000000E+00
  0.00000000E+00  0.00000000E+00  0.00000000E+00
  0.00000000E+00  0.00000000E+00  0.00000000E+00
  0.00000000E+00  0.00000000E+00  0.00000000E+00
  0.00000000E+00  0.00000000E+00  0.00000000E+00
  0.00000000E+00  0.00000000E+00  0.00000000E+00
  0.00000000E+00  0.00000000E+00  0.00000000E+00
  0.00000000E+00  0.00000000E+00  0.00000000E+00
  0.00000000E+00  0.00000000E+00  0.00000000E+00
  0.00000000E+00  0.00000000E+00  0.00000000E+00
  0.00000000E+00  0.00000000E+00  0.00000000E+00
  0.00000000E+00  0.00000000E+00  0.00000000E+00
  0.00000000E+00  0.00000000E+00  0.00000000E+00
  0.00000000E+00  0.00000000E+00  0.00000000E+00
  0.00000000E+00  0.00000000E+00  0.00000000E+00
  0.00000000E+00  0.00000000E+00  0.00000000E+00
  0.00000000E+00  0.00000000E+00  0.00000000E+00
  0.00000000E+00  0.00000000E+00  0.00000000E+00
  0.00000000E+00  0.00000000E+00  0.00000000E+00
  0.00000000E+00  0.00000000E+00  0.00000000E+00
  0.00000000E+00  0.00000000E+00  0.00000000E+00
  0.00000000E+00  0.00000000E+00  0.00000000E+00
  0.00000000E+00  0.00000000E+00  0.00000000E+00
  0.00000000E+00  0.00000000E+00  0.00000000E+00
  0.00000000E+00  0.00000000E+00  0.00000000E+00
  0.00000000E+00  0.00000000E+00  0.00000000E+00
  0.00000000E+00  0.00000000E+00  0.00000000E+00
  0.00000000E+00  0.00000000E+00  0.00000000E+00
  0.00000000E+00  0.00000000E+00  0.00000000E+00
  0.00000000E+00  0.00000000E+00  0.00000000E+00
  0.00000000E+00  0.00000000E+00  0.00000000E+00
  0.00000000E+00  0.00000000E+00  0.00000000E+00
  0.00000000E+00  0.00000000E+00  0.00000000E+00
  0.00000000E+00  0.00000000E+00  0.00000000E+00
  0.00000000E+00  0.00000000E+00  0.00000000E+00
  0.00000000E+00  0.00000000E+00  0.00000000E+00
  0.00000000E+00  0.00000000E+00  0.00000000E+00
  0.00000000E+00  0.00000000E+00  0.00000000E+00
  0.00000000E+00  0.00000000E+00  0.00000000E+00
  0.00000000E+00  0.00000000E+00  0.00000000E+00
  0.00000000E+00  0.00000000E+00  0.00000000E+00
  0.00000000E+00  0.00000000E+00  0.00000000E+00
  0.00000000E+00  0.00000000E+00  0.00000000E+00
  0.00000000E+00  0.00000000E+00  0.00000000E+00
  0.00000000E+00  0.00000000E+00  0.00000000E+00
  0.00000000E+00  0.00000000E+00  0.00000000E+00
  0.00000000E+00  0.00000000E+00  0.00000000E+00
  0.00000000E+00  0.00000000E+00  0.00000000E+00
  0.00000000E+00  0.00000000E+00  0.00000000E+00
  0.00000000E+00  0.00000000E+00  0.00000000E+00
  0.00000000E+00  0.00000000E+00  0.00000000E+00
  0.00000000E+00  0.00000000E+00  0.00000000E+00
  0.00000000E+00  0.00000000E+00  0.00000000E+00
  0.00000000E+00  0.00000000E+00  0.00000000E+00
  0.00000000E+00  0.00000000E+00  0.00000000E+00
  0.00000000E+00  0.00000000E+00  0.00000000E+00
  0.00000000E+00  0.00000000E+00  0.00000000E+00
  0.00000000E+00  0.00000000E+00  0.00000000E+00
  0.00000000E+00  0.00000000E+00  0.00000000E+00
  0.00000000E+00  0.00000000E+00  0.00000000E+00
  0.00000000E+00  0.00000000E+00  0.00000000E+00
  0.00000000E+00  0.00000000E+00  0.00000000E+00
  0.00000000E+00  0.00000000E+00  0.00000000E+00
  0.00000000E+00  0.00000000E+00  0.00000000E+00
  0.00000000E+00  0.00000000E+00  0.00000000E+00
  0.00000000E+00  0.00000000E+00  0.00000000E+00
  0.00000000E+00  0.00000000E+00  0.00000000E+00
  0.00000000E+00  0.00000000E+00  0.00000000E+00
  0.00000000E+00  0.00000000E+00  0.00000000E+00
  0.00000000E+00  0.00000000E+00  0.00000000E+00
  0.00000000E+00  0.00000000E+00  0.00000000E+00
  0.00000000E+00  0.00000000E+00  0.00000000E+00
  0.00000000E+00  0.00000000E+00  0.00000000E+00
  0.00000000E+00  0.00000000E+00  0.00000000E+00
  0.00000000E+00  0.00000000E+00  0.00000000E+00
  0.00000000E+00  0.00000000E+00  0.00000000E+00
  0.00000000E+00  0.00000000E+00  0.00000000E+00
  0.00000000E+00  0.00000000E+00  0.00000000E+00
  0.00000000E+00  0.00000000E+00  0.00000000E+00
  0.00000000E+00  0.00000000E+00  0.00000000E+00
  0.00000000E+00  0.00000000E+00  0.00000000E+00
  0.00000000E+00  0.00000000E+00  0.00000000E+00
  0.00000000E+00  0.00000000E+00  0.00000000E+00
  0.00000000E+00  0.00000000E+00  0.00000000E+00
  0.00000000E+00  0.00000000E+00  0.00000000E+00
  0.00000000E+00  0.00000000E+00  0.00000000E+00
  0.00000000E+00  0.00000000E+00  0.00000000E+00
  0.00000000E+00  0.00000000E+00  0.00000000E+00
  0.00000000E+00  0.00000000E+00  0.00000000E+00
  0.00000000E+00  0.00000000E+00  0.00000000E+00
  0.00000000E+00  0.00000000E+00  0.00000000E+00
  0.00000000E+00  0.00000000E+00  0.00000000E+00
  0.00000000E+00  0.00000000E+00  0.00000000E+00
  0.00000000E+00  0.00000000E+00  0.00000000E+00
  0.00000000E+00  0.00000000E+00  0.00000000E+00
  0.00000000E+00  0.00000000E+00  0.00000000E+00
  0.00000000E+00  0.00000000E+00  0.00000000E+00
  0.00000000E+00  0.00000000E+00  0.00000000E+00
  0.00000000E+00  0.00000000E+00  0.00000000E+00
  0.00000000E+00  0.00000000E+00  0.00000000E+00
  0.00000000E+00  0.00000000E+00  0.00000000E+00
  0.00000000E+00  0.00000000E+00  0.00000000E+00
  0.00000000E+00  0.00000000E+00  0.00000000E+00
  0.00000000E+00  0.00000000E+00  0.00000000E+00
  0.00000000E+00  0.00000000E+00  0.00000000E+00
  0.00000000E+00  0.00000000E+00  0.00000000E+00
  0.00000000E+00  0.00000000E+00  0.00000000E+00
  0.00000000E+00  0.00000000E+00  0.00000000E+00
  0.00000000E+00  0.00000000E+00  0.00000000E+00
  0.00000000E+00  0.00000000E+00  0.00000000E+00
  0.00000000E+00  0.00000000E+00  0.00000000E+00
  0.00000000E+00  0.00000000E+00  0.00000000E+00
  0.00000000E+00  0.00000000E+00  0.00000000E+00
  0.00000000E+00  0.00000000E+00  0.00000000E+00
  0.00000000E+00  0.00000000E+00  0.00000000E+00
  0.00000000E+00  0.00000000E+00  0.00000000E+00
  0.00000000E+00  0.00000000E+00  0.00000000E+00
  0.00000000E+00  0.00000000E+00  0.00000000E+00
  0.00000000E+00  0.00000000E+00  0.00000000E+00
  0.00000000E+00  0.00000000E+00  0.00000000E+00
  0.00000000E+00  0.00000000E+00  0.00000000E+00
  0.00000000E+00  0.00000000E+00  0.00000000E+00
  0.00000000E+00  0.00000000E+00  0.00000000E+00
  0.00000000E+00  0.00000000E+00  0.00000000E+00
  0.00000000E+00  0.00000000E+00  0.00000000E+00
  0.00000000E+00  0.00000000E+00  0.00000000E+00
  0.00000000E+00  0.00000000E+00  0.00000000E+00
  0.00000000E+00  0.00000000E+00  0.00000000E+00
  0.00000000E+00  0.00000000E+00  0.00000000E+00
  0.00000000E+00  0.00000000E+00  0.00000000E+00
  0.00000000E+00  0.00000000E+00  0.00000000E+00
  0.00000000E+00  0.00000000E+00  0.00000000E+00
  0.00000000E+00  0.00000000E+00  0.00000000E+00
  0.00000000E+00  0.00000000E+00  0.00000000E+00
  0.00000000E+00  0.00000000E+00  0.00000000E+00
  0.00000000E+00  0.00000000E+00  0.00000000E+00
  0.00000000E+00  0.00000000E+00  0.00000000E+00
  0.00000000E+00  0.00000000E+00  0.00000000E+00
  0.00000000E+00  0.00000000E+00  0.00000000E+00
  0.00000000E+00  0.00000000E+00  0.00000000E+00
  0.00000000E+00  0.00000000E+00  0.00000000E+00
  0.00000000E+00  0.00000000E+00  0.00000000E+00
  0.00000000E+00  0.00000000E+00  0.00000000E+00
  0.00000000E+00  0.00000000E+00  0.00000000E+00
  0.00000000E+00  0.00000000E+00  0.00000000E+00
  0.00000000E+00  0.00000000E+00  0.00000000E+00
  0.00000000E+00  0.00000000E+00  0.00000000E+00
  0.00000000E+00  0.00000000E+00  0.00000000E+00
  0.00000000E+00  0.00000000E+00  0.00000000E+00
  0.00000000E+00  0.00000000E+00  0.00000000E+00
  0.00000000E+00  0.00000000E+00  0.00000000E+00
  0.00000000E+00  0.00000000E+00  0.00000000E+00
  0.00000000E+00  0.00000000E+00  0.00000000E+00
  0.00000000E+00  0.00000000E+00  0.00000000E+00
  0.00000000E+00  0.00000000E+00  0.00000000E+00
  0.00000000E+00  0.00000000E+00  0.00000000E+00
  0.00000000E+00  0.00000000E+00  0.00000000E+00
  0.00000000E+00  0.00000000E+00  0.00000000E+00
  0.00000000E+00  0.00000000E+00  0.00000000E+00
  0.00000000E+00  0.00000000E+00  0.00000000E+00
  0.00000000E+00  0.00000000E+00  0.00000000E+00
  0.00000000E+00  0.00000000E+00  0.00000000E+00
  0.00000000E+00  0.00000000E+00  0.00000000E+00
  0.00000000E+00  0.00000000E+00  0.00000000E+00
  0.00000000E+00  0.00000000E+00  0.00000000E+00
  0.00000000E+00  0.00000000E+00  0.00000000E+00
  0.00000000E+00  0.00000000E+00  0.00000000E+00
  0.00000000E+00  0.00000000E+00  0.00000000E+00
  0.00000000E+00  0.00000000E+00  0.00000000E+00
  0.00000000E+00  0.00000000E+00  0.00000000E+00
  0.00000000E+00  0.00000000E+00  0.00000000E+00
  0.00000000E+00  0.00000000E+00  0.00000000E+00
  0.00000000E+00  0.00000000E+00  0.00000000E+00
  0.00000000E+00  0.00000000E+00  0.00000000E+00
  0.00000000E+00  0.00000000E+00  0.00000000E+00
  0.00000000E+00  0.00000000E+00  0.00000000E+00
  0.00000000E+00  0.00000000E+00  0.00000000E+00
  0.00000000E+00  0.00000000E+00  0.00000000E+00
  0.00000000E+00  0.00000000E+00  0.00000000E+00
  0.00000000E+00  0.00000000E+00  0.00000000E+00
  0.00000000E+00  0.00000000E+00  0.00000000E+00
  0.00000000E+00  0.00000000E+00  0.00000000E+00
  0.00000000E+00  0.00000000E+00  0.00000000E+00
  0.00000000E+00  0.00000000E+00  0.00000000E+00
