 C  H  N                                
   1.00000000000000     
     7.9113985352808234  -13.7029442220323787    0.0000000000000000
     7.9113985352808278   13.7029442220323787    0.0000000000000000
     0.0000000000000000    0.0000000000000000   36.4173130480389986
   C    H    N 
     6     7     1
Direct
  0.5001578828748512  0.5006318232229353  0.5514721957270675
  0.5439624941427477  0.5882169778270152  0.5318080991567041
  0.4564543343305033  0.4116781282648704  0.4938598460751498
  0.5442021421478135  0.5881613068669759  0.4935426934370425
  0.5002257797103467  0.4996737106228882  0.4739924436225132
  0.4565904395337185  0.4125658351739575  0.5321259409718110
  0.5784764283215377  0.6572077903811321  0.4784626969552795
  0.4218383780211358  0.3422718116467248  0.4790221875788228
  0.4221143825684081  0.3433025948300579  0.5469914525163206
  0.5786043876139374  0.6578117847264183  0.5464371774723957
  0.5000008461782645  0.5009706191485112  0.5814280277383088
  0.5470102052990229  0.5609388901074565  0.4230025960494799
  0.4862994623992116  0.4376274227119227  0.4231915632589553
  0.4960137522360583  0.4992042309708317  0.4357120625848004
 
  0.00000000E+00  0.00000000E+00  0.00000000E+00
  0.00000000E+00  0.00000000E+00  0.00000000E+00
  0.00000000E+00  0.00000000E+00  0.00000000E+00
  0.00000000E+00  0.00000000E+00  0.00000000E+00
  0.00000000E+00  0.00000000E+00  0.00000000E+00
  0.00000000E+00  0.00000000E+00  0.00000000E+00
  0.00000000E+00  0.00000000E+00  0.00000000E+00
  0.00000000E+00  0.00000000E+00  0.00000000E+00
  0.00000000E+00  0.00000000E+00  0.00000000E+00
  0.00000000E+00  0.00000000E+00  0.00000000E+00
  0.00000000E+00  0.00000000E+00  0.00000000E+00
  0.00000000E+00  0.00000000E+00  0.00000000E+00
  0.00000000E+00  0.00000000E+00  0.00000000E+00
  0.00000000E+00  0.00000000E+00  0.00000000E+00
