Mo S  C  F  H                           
    1.000000000000000     
     7.9113990000000003  -13.7029440000000005    0.0000000000000000
     7.9113990000000003   13.7029440000000005    0.0000000000000000
     0.0000000000000000    0.0000000000000000   36.4173130000000000
   Mo   S    C    F    H 
    75   150     6     5     1
Direct
  0.1335910800000022  0.0653507600000012  0.4997103400000000
  0.6679498100000032  0.7321467599999991  0.6702729100000013
  0.2676963899999976  0.9319434100000024  0.6691679999999991
  0.2664211399999985  0.9325076100000018  0.3296130100000028
  0.3333575799999977  0.8652985200000032  0.4997016800000011
  0.7335035999999988  0.8655111300000016  0.4996837799999980
  0.6664009799999988  0.9325558099999967  0.3296300000000016
  0.6679041100000020  0.9318520300000017  0.6693466899999976
  0.2675000199999999  0.7319944500000020  0.6695533799999964
  0.2663037000000017  0.7323720600000030  0.3296334699999974
  0.6662979399999998  0.7324885900000027  0.3296508099999969
  0.3334254500000000  0.6652837600000012  0.4997206700000021
  0.2675085400000015  0.5323059199999989  0.6706312499999996
  0.2663971400000023  0.5324087899999981  0.3296584899999999
  0.3336705099999975  0.4654684699999976  0.4996669000000011
  0.8663939600000035  0.1325718399999971  0.3296349100000029
  0.8680018299999972  0.1318996199999987  0.6694519799999981
  0.2685809899999967  0.3320879500000018  0.6708673700000034
  0.2662771500000005  0.3323947200000035  0.3296364500000024
  0.3336170500000009  0.2654309300000008  0.4997474800000035
  0.9335993199999990  0.2655012099999965  0.4996825699999974
  0.7335074699999993  0.0654360099999991  0.4997076800000002
  0.5335017900000025  0.0653966100000005  0.4996630300000007
  0.4663844100000034  0.1325362400000003  0.3295471799999987
  0.4680656900000031  0.1314890599999998  0.6689712100000023
  0.6663286100000008  0.1325360299999971  0.3295652700000034
  0.6677773199999990  0.1316586499999985  0.6690371700000028
  0.4678267500000004  0.9320972900000015  0.6691016500000018
  0.4663337900000002  0.9324227999999977  0.3295876099999973
  0.5334283199999987  0.8654062100000033  0.4997384699999969
  0.7334639700000025  0.2653402999999983  0.4996577799999997
  0.4668128499999966  0.7327478400000018  0.6696189999999973
  0.4663417499999980  0.7324596300000010  0.3296550100000033
  0.5335174200000026  0.6654905199999988  0.4996467200000012
  0.6663349199999971  0.3325621899999973  0.3294599800000029
  0.6674251600000005  0.3313146599999968  0.6686841400000034
  0.4685822300000027  0.5326819000000000  0.6744159900000000
  0.4663294899999997  0.5324321800000007  0.3296382099999988
  0.5335296299999968  0.4655123599999982  0.4997014500000034
  0.7334921899999998  0.4654871799999967  0.4997002699999982
  0.6663233800000015  0.5325105399999970  0.3295050799999970
  0.6678598800000017  0.5298859999999976  0.6700857000000013
  0.4700063800000009  0.3293592200000006  0.6680581899999964
  0.4663634200000004  0.3325506300000001  0.3295796499999994
  0.5335228200000017  0.2654654099999973  0.4997020300000017
  0.7334360799999970  0.6655595499999976  0.4996668100000008
  0.8663450800000021  0.3325300200000001  0.3296018200000006
  0.8678559299999975  0.3318935900000000  0.6693769800000027
  0.9336596400000019  0.0655467400000020  0.4997039300000026
  0.2678462100000019  0.1319514600000034  0.6692397799999981
  0.0677504200000030  0.7320339799999971  0.6693184900000020
  0.0664197500000014  0.7324514800000017  0.3296209700000006
  0.1333588999999975  0.6652676100000008  0.4996881799999997
  0.9333439600000020  0.6653576599999980  0.4996331299999994
  0.8685591200000005  0.7323563200000009  0.6690605599999984
  0.0675690899999992  0.5319734099999991  0.6696028799999993
  0.0663607099999979  0.5323943799999995  0.3296238399999964
  0.8677605700000015  0.5318859200000006  0.6694971599999988
  0.1336122700000004  0.4654072900000017  0.4997382000000030
  0.0679881200000025  0.3319826000000035  0.6700215199999988
  0.0663930400000012  0.3324537299999974  0.3296358699999971
  0.1337212299999990  0.2654904099999982  0.4997119900000015
  0.8662880999999985  0.9324802499999976  0.3296645799999993
  0.8679349200000033  0.9319490000000030  0.6693868799999976
  0.0681762000000035  0.1321666300000004  0.6696793400000018
  0.0663490999999965  0.1324176800000032  0.3297059499999975
  0.9335173600000033  0.8654061800000008  0.4996709500000023
  0.8663933200000002  0.5325192000000030  0.3294797499999973
  0.8663717499999990  0.7325372399999992  0.3296390300000027
  0.2664290700000009  0.1325168400000010  0.3296101700000023
  0.3335137300000000  0.0653101699999965  0.4996796200000020
  0.1334374600000032  0.8653335799999979  0.4996759400000030
  0.9334011099999984  0.4653004199999984  0.4996607699999984
  0.0678430000000034  0.9322326300000014  0.6693079400000030
  0.0664218399999967  0.9324724000000018  0.3296590699999982
  0.6666994099999997  0.9320955499999997  0.4566229599999971
  0.6668982899999989  0.3319853300000020  0.5427705399999994
  0.7327706100000029  0.2658354599999981  0.3726560899999996
  0.7336542600000016  0.2648444299999966  0.7120323400000004
  0.8668539000000024  0.1321779499999991  0.4566244900000029
  0.8667235899999994  0.3319587900000016  0.4565408500000032
  0.9344666699999991  0.6649430399999972  0.6261579900000029
  0.9331803399999998  0.6660473999999965  0.2865475600000025
  0.7331194699999983  0.2658737699999989  0.2864667200000000
  0.7351777499999983  0.2652470100000031  0.6259543700000023
  0.8667302500000034  0.7321867599999976  0.4565272700000023
  0.6668367700000033  0.3321458899999996  0.4565867399999988
  0.9339103399999971  0.2649469500000023  0.7126823500000015
  0.8668959600000008  0.9320401299999972  0.5427468399999995
  0.9330591599999991  0.0658277900000002  0.2866313999999974
  0.9351437999999987  0.0655701199999967  0.6264008799999985
  0.9346395000000030  0.6656254500000003  0.7123814899999985
  0.7349857399999991  0.0649710599999977  0.6261889199999970
  0.7330804799999981  0.0658486900000028  0.2865692999999965
  0.6668419700000001  0.1319779000000025  0.4565624000000028
  0.7342004899999992  0.0651849999999996  0.7123001200000019
  0.7329859900000031  0.0659869300000011  0.3727106799999973
  0.9330831899999978  0.8659213099999974  0.3727608800000013
  0.9346559800000023  0.8652058899999986  0.7123937300000023
  0.8669086900000025  0.9321890399999972  0.4566311600000006
  0.6667813099999975  0.1320203100000015  0.5427834500000017
  0.9331108399999977  0.2659368899999990  0.3727299199999976
  0.9330583899999993  0.6656766700000034  0.3726739800000018
  0.9345137899999969  0.0650472299999976  0.7125497800000034
  0.7329259999999991  0.8657611599999981  0.2865892700000003
  0.7352978400000012  0.8663859400000007  0.7127497700000021
  0.7329014500000000  0.8658484099999981  0.3727692300000029
  0.7339491700000025  0.8641989199999998  0.6264816400000015
  0.8668771099999972  0.5320731899999984  0.5427318999999997
  0.6668935300000030  0.9320980299999988  0.5428286599999979
  0.9329320100000018  0.4659017500000004  0.3726942099999988
  0.9340093400000029  0.4650464699999972  0.7125265199999973
  0.8667819699999981  0.5319895700000004  0.4565566300000015
  0.7332734299999970  0.6640615999999966  0.6268273600000001
  0.7330705399999999  0.6660166099999998  0.2865644199999977
  0.6668357599999979  0.7323288500000018  0.4565371400000018
  0.7367349800000014  0.6654873100000032  0.7121842900000033
  0.7328024799999966  0.6656536200000005  0.3726947199999984
  0.6668003699999971  0.7322643500000012  0.5427812599999982
  0.9332346200000003  0.4658054399999969  0.2865108499999991
  0.9344855800000005  0.4653546700000035  0.6263363200000001
  0.9353455899999972  0.2655400800000010  0.6265166399999984
  0.8667347399999983  0.3320031000000014  0.5427388900000025
  0.9331289499999968  0.2659283799999983  0.2865744799999987
  0.8666847499999975  0.7320843800000034  0.5427464500000028
  0.7341687099999987  0.4666568199999972  0.6262910800000014
  0.7330193600000001  0.4659380200000030  0.2863527499999989
  0.6668381699999983  0.5322092700000027  0.4566080199999973
  0.7344995699999970  0.4638976000000028  0.7127858300000014
  0.7330907199999999  0.4659135200000009  0.3725298900000027
  0.8669495299999994  0.1322817300000025  0.5427678799999995
  0.9328041699999972  0.0657069399999983  0.3727862000000002
  0.6669039699999999  0.5323958299999987  0.5428380199999978
  0.5345164000000011  0.8648457999999977  0.6261540300000021
  0.5331149900000014  0.4658791100000030  0.3727071499999965
  0.4666868799999975  0.9320179699999969  0.4566269899999966
  0.1343842400000028  0.6650425400000017  0.6263877299999976
  0.0667178699999980  0.9318892200000022  0.5428219900000002
  0.1331986699999987  0.8657852999999989  0.3727420999999964
  0.1344860800000021  0.8656384200000034  0.7123156800000032
  0.0668352599999977  0.9320202099999975  0.4565912799999978
  0.1330917700000001  0.8657994699999989  0.2865976900000007
  0.1341969799999987  0.8653108700000018  0.6261752999999999
  0.2669655699999964  0.1319948299999965  0.5427980999999988
  0.1329949599999978  0.6656515900000031  0.2865771199999969
  0.3332367200000022  0.0659293800000000  0.3726936099999989
  0.2670042600000002  0.1320960999999983  0.4566287299999985
  0.3329891300000014  0.0658290300000033  0.2865462800000032
  0.3342172099999985  0.0652642900000018  0.6260583099999977
  0.2671179700000010  0.3322963700000017  0.5428080000000008
  0.3330231099999992  0.2658179000000018  0.3727026500000008
  0.3378822800000023  0.2654834200000025  0.7122395499999996
  0.2670692900000020  0.3321312300000017  0.4566016400000024
  0.3329960100000022  0.2659127599999991  0.2865690799999996
  0.3347790700000033  0.0652560600000029  0.7121121200000005
  0.0666848400000006  0.7319641799999985  0.4565902100000017
  0.1340198700000030  0.6655480000000011  0.7125615699999983
  0.1328559299999981  0.6655957799999968  0.3727218599999986
  0.0670975900000030  0.1321800699999969  0.5427996100000030
  0.1332988400000019  0.0657491600000029  0.3727630300000015
  0.1349819100000005  0.0653630500000020  0.7125604900000013
  0.0670716400000018  0.1321342199999975  0.4566170000000014
  0.1329907300000031  0.0657801099999986  0.2866099199999965
  0.1344556499999996  0.0657429199999982  0.6263114699999974
  0.0669766800000033  0.3321154699999980  0.5428167700000017
  0.1330248800000007  0.2658903900000027  0.3727785199999971
  0.1338276500000006  0.2644103800000011  0.7132711599999979
  0.0670569600000022  0.3321871300000012  0.4566164499999985
  0.1329065600000021  0.2656513800000013  0.2865879599999985
  0.1363004000000032  0.2667832599999969  0.6271264599999995
  0.0666323000000020  0.5318952800000005  0.5427857600000010
  0.1330913899999970  0.4657859799999997  0.3727428799999970
  0.1331112299999972  0.4653623100000033  0.7131427200000005
  0.0667297800000028  0.5318765700000014  0.4566190899999967
  0.1331245499999980  0.4657237199999997  0.2866029200000000
  0.1354118799999995  0.4652202700000032  0.6269773200000017
  0.0666458299999988  0.7319627299999993  0.5427212900000029
  0.3334878499999974  0.2657591800000034  0.6262969499999969
  0.2670554099999976  0.5319164900000004  0.5428537299999974
  0.3330168700000016  0.4656204599999967  0.3727499900000026
  0.3303838699999986  0.4640490700000015  0.7146988800000003
  0.5347126400000022  0.2644626100000025  0.7121732199999968
  0.4667840999999981  0.3320778300000029  0.4566252899999981
  0.5328282999999985  0.2658524599999978  0.2864480599999979
  0.5343902199999988  0.2638157399999983  0.6251042100000035
  0.4668905099999989  0.5322114200000030  0.5427626800000027
  0.9331038500000020  0.8659644199999974  0.2866140400000035
  0.4669399699999985  0.5322368200000014  0.4565457400000028
  0.5328712299999978  0.4659108399999994  0.2864982999999981
  0.5331561799999989  0.4675433900000030  0.6286343299999970
  0.4668012400000023  0.7319000000000031  0.5427928100000017
  0.5329621300000014  0.6656617699999998  0.3727554399999988
  0.5348261600000015  0.6719875699999989  0.7133177600000025
  0.4667038300000002  0.7321084499999984  0.4566195399999984
  0.5329825499999998  0.6658151800000027  0.2866163300000011
  0.5324711900000025  0.6612853399999992  0.6284147499999975
  0.4667318099999989  0.9321699300000006  0.5427822899999981
  0.5331533499999992  0.8659279499999997  0.3727291100000016
  0.5346367699999988  0.8667319799999973  0.7124101499999966
  0.5331257699999981  0.2658304300000012  0.3726427499999971
  0.5331601700000022  0.8657873499999980  0.2865673700000002
  0.4669106300000010  0.3321249999999978  0.5428688000000008
  0.5329771800000032  0.0657490199999984  0.2865350100000015
  0.2669139400000020  0.5320040900000009  0.4566218599999985
  0.3330013699999981  0.4657151600000020  0.2866244300000034
  0.3385047900000018  0.4670081399999972  0.6291216500000019
  0.2666635599999978  0.7318470700000006  0.5427996199999967
  0.3330052700000010  0.6656900600000029  0.3727610600000020
  0.3341439399999970  0.6666827800000021  0.7131249400000002
  0.2666739399999969  0.7319610500000024  0.4566204600000034
  0.3329626800000014  0.6656590999999992  0.2866170499999967
  0.3335240299999995  0.6638923399999968  0.6267085599999973
  0.2667923300000012  0.9320537999999985  0.5427997700000020
  0.3329970300000014  0.8657956899999988  0.3726967699999975
  0.3347285600000021  0.8661018999999968  0.7123274599999974
  0.2667239800000019  0.9319974300000027  0.4565655700000022
  0.3328843199999980  0.8657244300000002  0.2865506600000032
  0.3341350299999988  0.8648190700000029  0.6261832599999977
  0.4668473999999989  0.1320234800000009  0.5427235900000014
  0.5329980699999979  0.0658473599999994  0.3726624900000033
  0.5345825599999969  0.0652582600000002  0.7121373800000015
  0.4669019700000021  0.1321298900000016  0.4565921200000034
  0.5346062799999984  0.0648353400000019  0.6258530400000026
  0.9345501800000022  0.8655814299999989  0.6260968899999995
  0.5310794000000030  0.4859418300000016  0.7339250899999996
  0.5272664599999999  0.5256515299999975  0.7804731599999997
  0.5907392000000016  0.6163977799999998  0.7967452600000016
  0.4948052599999997  0.4563284800000034  0.8429485200000002
  0.6062121900000008  0.6278232499999987  0.8345551800000024
  0.5594443900000030  0.5475476299999968  0.8578127800000033
  0.4786532399999999  0.4470501899999988  0.8052126299999998
  0.6685494199999980  0.7163784800000030  0.8486479999999972
  0.5768395999999996  0.5577640699999975  0.8940815500000028
  0.4497316400000031  0.3779227899999995  0.8651435100000029
  0.4172075099999972  0.3562865500000001  0.7923220999999998
  0.6446510299999986  0.6982437300000015  0.7767473099999975
  0.5643893800000015  0.4259848599999998  0.6941643600000020
 
  0.00000000E+00  0.00000000E+00  0.00000000E+00
  0.00000000E+00  0.00000000E+00  0.00000000E+00
  0.00000000E+00  0.00000000E+00  0.00000000E+00
  0.00000000E+00  0.00000000E+00  0.00000000E+00
  0.00000000E+00  0.00000000E+00  0.00000000E+00
  0.00000000E+00  0.00000000E+00  0.00000000E+00
  0.00000000E+00  0.00000000E+00  0.00000000E+00
  0.00000000E+00  0.00000000E+00  0.00000000E+00
  0.00000000E+00  0.00000000E+00  0.00000000E+00
  0.00000000E+00  0.00000000E+00  0.00000000E+00
  0.00000000E+00  0.00000000E+00  0.00000000E+00
  0.00000000E+00  0.00000000E+00  0.00000000E+00
  0.00000000E+00  0.00000000E+00  0.00000000E+00
  0.00000000E+00  0.00000000E+00  0.00000000E+00
  0.00000000E+00  0.00000000E+00  0.00000000E+00
  0.00000000E+00  0.00000000E+00  0.00000000E+00
  0.00000000E+00  0.00000000E+00  0.00000000E+00
  0.00000000E+00  0.00000000E+00  0.00000000E+00
  0.00000000E+00  0.00000000E+00  0.00000000E+00
  0.00000000E+00  0.00000000E+00  0.00000000E+00
  0.00000000E+00  0.00000000E+00  0.00000000E+00
  0.00000000E+00  0.00000000E+00  0.00000000E+00
  0.00000000E+00  0.00000000E+00  0.00000000E+00
  0.00000000E+00  0.00000000E+00  0.00000000E+00
  0.00000000E+00  0.00000000E+00  0.00000000E+00
  0.00000000E+00  0.00000000E+00  0.00000000E+00
  0.00000000E+00  0.00000000E+00  0.00000000E+00
  0.00000000E+00  0.00000000E+00  0.00000000E+00
  0.00000000E+00  0.00000000E+00  0.00000000E+00
  0.00000000E+00  0.00000000E+00  0.00000000E+00
  0.00000000E+00  0.00000000E+00  0.00000000E+00
  0.00000000E+00  0.00000000E+00  0.00000000E+00
  0.00000000E+00  0.00000000E+00  0.00000000E+00
  0.00000000E+00  0.00000000E+00  0.00000000E+00
  0.00000000E+00  0.00000000E+00  0.00000000E+00
  0.00000000E+00  0.00000000E+00  0.00000000E+00
  0.00000000E+00  0.00000000E+00  0.00000000E+00
  0.00000000E+00  0.00000000E+00  0.00000000E+00
  0.00000000E+00  0.00000000E+00  0.00000000E+00
  0.00000000E+00  0.00000000E+00  0.00000000E+00
  0.00000000E+00  0.00000000E+00  0.00000000E+00
  0.00000000E+00  0.00000000E+00  0.00000000E+00
  0.00000000E+00  0.00000000E+00  0.00000000E+00
  0.00000000E+00  0.00000000E+00  0.00000000E+00
  0.00000000E+00  0.00000000E+00  0.00000000E+00
  0.00000000E+00  0.00000000E+00  0.00000000E+00
  0.00000000E+00  0.00000000E+00  0.00000000E+00
  0.00000000E+00  0.00000000E+00  0.00000000E+00
  0.00000000E+00  0.00000000E+00  0.00000000E+00
  0.00000000E+00  0.00000000E+00  0.00000000E+00
  0.00000000E+00  0.00000000E+00  0.00000000E+00
  0.00000000E+00  0.00000000E+00  0.00000000E+00
  0.00000000E+00  0.00000000E+00  0.00000000E+00
  0.00000000E+00  0.00000000E+00  0.00000000E+00
  0.00000000E+00  0.00000000E+00  0.00000000E+00
  0.00000000E+00  0.00000000E+00  0.00000000E+00
  0.00000000E+00  0.00000000E+00  0.00000000E+00
  0.00000000E+00  0.00000000E+00  0.00000000E+00
  0.00000000E+00  0.00000000E+00  0.00000000E+00
  0.00000000E+00  0.00000000E+00  0.00000000E+00
  0.00000000E+00  0.00000000E+00  0.00000000E+00
  0.00000000E+00  0.00000000E+00  0.00000000E+00
  0.00000000E+00  0.00000000E+00  0.00000000E+00
  0.00000000E+00  0.00000000E+00  0.00000000E+00
  0.00000000E+00  0.00000000E+00  0.00000000E+00
  0.00000000E+00  0.00000000E+00  0.00000000E+00
  0.00000000E+00  0.00000000E+00  0.00000000E+00
  0.00000000E+00  0.00000000E+00  0.00000000E+00
  0.00000000E+00  0.00000000E+00  0.00000000E+00
  0.00000000E+00  0.00000000E+00  0.00000000E+00
  0.00000000E+00  0.00000000E+00  0.00000000E+00
  0.00000000E+00  0.00000000E+00  0.00000000E+00
  0.00000000E+00  0.00000000E+00  0.00000000E+00
  0.00000000E+00  0.00000000E+00  0.00000000E+00
  0.00000000E+00  0.00000000E+00  0.00000000E+00
  0.00000000E+00  0.00000000E+00  0.00000000E+00
  0.00000000E+00  0.00000000E+00  0.00000000E+00
  0.00000000E+00  0.00000000E+00  0.00000000E+00
  0.00000000E+00  0.00000000E+00  0.00000000E+00
  0.00000000E+00  0.00000000E+00  0.00000000E+00
  0.00000000E+00  0.00000000E+00  0.00000000E+00
  0.00000000E+00  0.00000000E+00  0.00000000E+00
  0.00000000E+00  0.00000000E+00  0.00000000E+00
  0.00000000E+00  0.00000000E+00  0.00000000E+00
  0.00000000E+00  0.00000000E+00  0.00000000E+00
  0.00000000E+00  0.00000000E+00  0.00000000E+00
  0.00000000E+00  0.00000000E+00  0.00000000E+00
  0.00000000E+00  0.00000000E+00  0.00000000E+00
  0.00000000E+00  0.00000000E+00  0.00000000E+00
  0.00000000E+00  0.00000000E+00  0.00000000E+00
  0.00000000E+00  0.00000000E+00  0.00000000E+00
  0.00000000E+00  0.00000000E+00  0.00000000E+00
  0.00000000E+00  0.00000000E+00  0.00000000E+00
  0.00000000E+00  0.00000000E+00  0.00000000E+00
  0.00000000E+00  0.00000000E+00  0.00000000E+00
  0.00000000E+00  0.00000000E+00  0.00000000E+00
  0.00000000E+00  0.00000000E+00  0.00000000E+00
  0.00000000E+00  0.00000000E+00  0.00000000E+00
  0.00000000E+00  0.00000000E+00  0.00000000E+00
  0.00000000E+00  0.00000000E+00  0.00000000E+00
  0.00000000E+00  0.00000000E+00  0.00000000E+00
  0.00000000E+00  0.00000000E+00  0.00000000E+00
  0.00000000E+00  0.00000000E+00  0.00000000E+00
  0.00000000E+00  0.00000000E+00  0.00000000E+00
  0.00000000E+00  0.00000000E+00  0.00000000E+00
  0.00000000E+00  0.00000000E+00  0.00000000E+00
  0.00000000E+00  0.00000000E+00  0.00000000E+00
  0.00000000E+00  0.00000000E+00  0.00000000E+00
  0.00000000E+00  0.00000000E+00  0.00000000E+00
  0.00000000E+00  0.00000000E+00  0.00000000E+00
  0.00000000E+00  0.00000000E+00  0.00000000E+00
  0.00000000E+00  0.00000000E+00  0.00000000E+00
  0.00000000E+00  0.00000000E+00  0.00000000E+00
  0.00000000E+00  0.00000000E+00  0.00000000E+00
  0.00000000E+00  0.00000000E+00  0.00000000E+00
  0.00000000E+00  0.00000000E+00  0.00000000E+00
  0.00000000E+00  0.00000000E+00  0.00000000E+00
  0.00000000E+00  0.00000000E+00  0.00000000E+00
  0.00000000E+00  0.00000000E+00  0.00000000E+00
  0.00000000E+00  0.00000000E+00  0.00000000E+00
  0.00000000E+00  0.00000000E+00  0.00000000E+00
  0.00000000E+00  0.00000000E+00  0.00000000E+00
  0.00000000E+00  0.00000000E+00  0.00000000E+00
  0.00000000E+00  0.00000000E+00  0.00000000E+00
  0.00000000E+00  0.00000000E+00  0.00000000E+00
  0.00000000E+00  0.00000000E+00  0.00000000E+00
  0.00000000E+00  0.00000000E+00  0.00000000E+00
  0.00000000E+00  0.00000000E+00  0.00000000E+00
  0.00000000E+00  0.00000000E+00  0.00000000E+00
  0.00000000E+00  0.00000000E+00  0.00000000E+00
  0.00000000E+00  0.00000000E+00  0.00000000E+00
  0.00000000E+00  0.00000000E+00  0.00000000E+00
  0.00000000E+00  0.00000000E+00  0.00000000E+00
  0.00000000E+00  0.00000000E+00  0.00000000E+00
  0.00000000E+00  0.00000000E+00  0.00000000E+00
  0.00000000E+00  0.00000000E+00  0.00000000E+00
  0.00000000E+00  0.00000000E+00  0.00000000E+00
  0.00000000E+00  0.00000000E+00  0.00000000E+00
  0.00000000E+00  0.00000000E+00  0.00000000E+00
  0.00000000E+00  0.00000000E+00  0.00000000E+00
  0.00000000E+00  0.00000000E+00  0.00000000E+00
  0.00000000E+00  0.00000000E+00  0.00000000E+00
  0.00000000E+00  0.00000000E+00  0.00000000E+00
  0.00000000E+00  0.00000000E+00  0.00000000E+00
  0.00000000E+00  0.00000000E+00  0.00000000E+00
  0.00000000E+00  0.00000000E+00  0.00000000E+00
  0.00000000E+00  0.00000000E+00  0.00000000E+00
  0.00000000E+00  0.00000000E+00  0.00000000E+00
  0.00000000E+00  0.00000000E+00  0.00000000E+00
  0.00000000E+00  0.00000000E+00  0.00000000E+00
  0.00000000E+00  0.00000000E+00  0.00000000E+00
  0.00000000E+00  0.00000000E+00  0.00000000E+00
  0.00000000E+00  0.00000000E+00  0.00000000E+00
  0.00000000E+00  0.00000000E+00  0.00000000E+00
  0.00000000E+00  0.00000000E+00  0.00000000E+00
  0.00000000E+00  0.00000000E+00  0.00000000E+00
  0.00000000E+00  0.00000000E+00  0.00000000E+00
  0.00000000E+00  0.00000000E+00  0.00000000E+00
  0.00000000E+00  0.00000000E+00  0.00000000E+00
  0.00000000E+00  0.00000000E+00  0.00000000E+00
  0.00000000E+00  0.00000000E+00  0.00000000E+00
  0.00000000E+00  0.00000000E+00  0.00000000E+00
  0.00000000E+00  0.00000000E+00  0.00000000E+00
  0.00000000E+00  0.00000000E+00  0.00000000E+00
  0.00000000E+00  0.00000000E+00  0.00000000E+00
  0.00000000E+00  0.00000000E+00  0.00000000E+00
  0.00000000E+00  0.00000000E+00  0.00000000E+00
  0.00000000E+00  0.00000000E+00  0.00000000E+00
  0.00000000E+00  0.00000000E+00  0.00000000E+00
  0.00000000E+00  0.00000000E+00  0.00000000E+00
  0.00000000E+00  0.00000000E+00  0.00000000E+00
  0.00000000E+00  0.00000000E+00  0.00000000E+00
  0.00000000E+00  0.00000000E+00  0.00000000E+00
  0.00000000E+00  0.00000000E+00  0.00000000E+00
  0.00000000E+00  0.00000000E+00  0.00000000E+00
  0.00000000E+00  0.00000000E+00  0.00000000E+00
  0.00000000E+00  0.00000000E+00  0.00000000E+00
  0.00000000E+00  0.00000000E+00  0.00000000E+00
  0.00000000E+00  0.00000000E+00  0.00000000E+00
  0.00000000E+00  0.00000000E+00  0.00000000E+00
  0.00000000E+00  0.00000000E+00  0.00000000E+00
  0.00000000E+00  0.00000000E+00  0.00000000E+00
  0.00000000E+00  0.00000000E+00  0.00000000E+00
  0.00000000E+00  0.00000000E+00  0.00000000E+00
  0.00000000E+00  0.00000000E+00  0.00000000E+00
  0.00000000E+00  0.00000000E+00  0.00000000E+00
  0.00000000E+00  0.00000000E+00  0.00000000E+00
  0.00000000E+00  0.00000000E+00  0.00000000E+00
  0.00000000E+00  0.00000000E+00  0.00000000E+00
  0.00000000E+00  0.00000000E+00  0.00000000E+00
  0.00000000E+00  0.00000000E+00  0.00000000E+00
  0.00000000E+00  0.00000000E+00  0.00000000E+00
  0.00000000E+00  0.00000000E+00  0.00000000E+00
  0.00000000E+00  0.00000000E+00  0.00000000E+00
  0.00000000E+00  0.00000000E+00  0.00000000E+00
  0.00000000E+00  0.00000000E+00  0.00000000E+00
  0.00000000E+00  0.00000000E+00  0.00000000E+00
  0.00000000E+00  0.00000000E+00  0.00000000E+00
  0.00000000E+00  0.00000000E+00  0.00000000E+00
  0.00000000E+00  0.00000000E+00  0.00000000E+00
  0.00000000E+00  0.00000000E+00  0.00000000E+00
  0.00000000E+00  0.00000000E+00  0.00000000E+00
  0.00000000E+00  0.00000000E+00  0.00000000E+00
  0.00000000E+00  0.00000000E+00  0.00000000E+00
  0.00000000E+00  0.00000000E+00  0.00000000E+00
  0.00000000E+00  0.00000000E+00  0.00000000E+00
  0.00000000E+00  0.00000000E+00  0.00000000E+00
  0.00000000E+00  0.00000000E+00  0.00000000E+00
  0.00000000E+00  0.00000000E+00  0.00000000E+00
  0.00000000E+00  0.00000000E+00  0.00000000E+00
  0.00000000E+00  0.00000000E+00  0.00000000E+00
  0.00000000E+00  0.00000000E+00  0.00000000E+00
  0.00000000E+00  0.00000000E+00  0.00000000E+00
  0.00000000E+00  0.00000000E+00  0.00000000E+00
  0.00000000E+00  0.00000000E+00  0.00000000E+00
  0.00000000E+00  0.00000000E+00  0.00000000E+00
  0.00000000E+00  0.00000000E+00  0.00000000E+00
  0.00000000E+00  0.00000000E+00  0.00000000E+00
  0.00000000E+00  0.00000000E+00  0.00000000E+00
  0.00000000E+00  0.00000000E+00  0.00000000E+00
  0.00000000E+00  0.00000000E+00  0.00000000E+00
  0.00000000E+00  0.00000000E+00  0.00000000E+00
  0.00000000E+00  0.00000000E+00  0.00000000E+00
  0.00000000E+00  0.00000000E+00  0.00000000E+00
  0.00000000E+00  0.00000000E+00  0.00000000E+00
  0.00000000E+00  0.00000000E+00  0.00000000E+00
  0.00000000E+00  0.00000000E+00  0.00000000E+00
  0.00000000E+00  0.00000000E+00  0.00000000E+00
  0.00000000E+00  0.00000000E+00  0.00000000E+00
  0.00000000E+00  0.00000000E+00  0.00000000E+00
  0.00000000E+00  0.00000000E+00  0.00000000E+00
  0.00000000E+00  0.00000000E+00  0.00000000E+00
  0.00000000E+00  0.00000000E+00  0.00000000E+00
  0.00000000E+00  0.00000000E+00  0.00000000E+00
  0.00000000E+00  0.00000000E+00  0.00000000E+00
  0.00000000E+00  0.00000000E+00  0.00000000E+00
  0.00000000E+00  0.00000000E+00  0.00000000E+00
