Mo S  C  F  H 
 1.0000000000000000
     7.9113990000000003  -13.7029440000000005    0.0000000000000000
     7.9113990000000003   13.7029440000000005    0.0000000000000000
     0.0000000000000000    0.0000000000000000   36.4173130000000000
 Mo  S   C   F   H  
  75 150   6   5   1
Cartesian
  1.5739082740341599 -0.9350932835020800 18.1981078611164193
 11.0767226038014304  0.8796872108208013 24.4095383588908312
  9.4908291140802010  9.1021397172268799 24.3693005055840004
  9.4852037138212513  9.1273455975676807 12.0036201540421299
  9.4830466708838994  7.2891569121273596 18.1977924871858399
 12.6504435359072716  1.8088917911683200 18.1971406172831394
 12.6499851494492095  3.6471047308195197 12.0042388841899985
 12.6563091262398615  3.6168635666764808 24.3758079152439713
  7.9073995504635297  6.3649411626019194 24.3833350096679382
  7.9009224089882402  6.3865086372518407 12.0043652522661102
 11.0663583546554705  0.9070067702736004 12.0049967284735306
  7.9011870452847903  4.5474358378646400 18.1984840519597100
  6.3276513190295400  3.6285036694867197 24.4225881388312516
  6.3196724357960701  3.6451427432976002 12.0052764134373717
  6.3223073272330206  1.8060200651942404 18.1965258930397020
  7.9032170311542007 -10.0555234163212805 12.0044176931968298
  7.9106193316285500 -10.0867673619062401 24.3796422941297379
  4.7521316512470602  0.8702323164902401 24.4311869947768088
  4.7363320336461303  0.9060053591260796 12.0044737758588518
  4.7393075899240200 -0.9343505839372801 18.1994604001212394
  9.4865627339414704 -9.1549109878358408 18.1970965523344113
  6.3207606487285206 -9.1545458043782411 18.1980109910638390
  4.7381242028616004 -6.4144190676499200 18.1963849580383901
  4.7383002314893510 -4.5747027780124814 12.0012228023273391
  4.7433168495952502 -4.6120907125987198 24.3621339425587315
  6.3201369140313597 -7.3145298313555198 12.0018815915195116
  6.3246569336220304 -7.3464041123644801 24.3645360285242099
 11.0753576501319611  6.3618732104697591 24.3668842168664490
 11.0661214873694114  6.3867916030454399 12.0026951542919296
 11.0667381018074700  4.5490744359081603 18.1991322801311100
  7.9019391028737296 -6.4146724350844799 18.1961937671451395
  9.4902032433053112  3.6440922756105607 24.3857247137469990
  9.4841960389306212  3.6465984070387205 12.0051496811881311
  9.4858302175080613  1.8084199988063994 18.1957909916633582
  7.9026735971568911 -4.5736690279171217 11.9980472126337396
  7.9014292132081794 -4.6057033593119998 24.3516796245158211
  7.9214000368178707  0.8783541884284808 24.5604182000348672
  7.9016020772763307  0.9058014593193606 12.0045378703297292
  7.9038198006440101 -0.9320368418428792 18.1977841112038483
  9.4856041888386304 -3.6724576437494392 18.1977411387745107
  9.4844534758540799 -1.8336298530009609 11.9996896334500409
  9.4758455572861209 -1.8906483511027194 24.4027206737241009
  6.3241002084744000 -1.9272801572390397 24.3288842074434690
  6.3205278162559502 -1.8336291678537595 12.0024052724804502
  6.3211146838337706 -3.6731756780150389 18.1978052332453899
 11.0680126281863700 -0.9301082895043201 18.1965226154815305
  9.4847792672648996 -7.3148378735366402 12.0032126443096594
  9.4916971527784817 -7.3442619311289619 24.3769109956547396
  7.9051203555256206 -11.8957024543776004 18.1978744261400891
  3.1629588866403298 -1.8621581491439996 24.3719145403111384
  6.3274135023755997  9.1026404228006399 24.3747809470173706
  6.3201890501507707  9.1265954984131206 12.0039100358536110
  6.3182529725874899  7.2887152662422405 18.1973008534603409
 12.6479663977663801 -3.6722012616672011 18.1952960803796877
 12.6654808111005597 -1.8663793410432015 24.3653878294752815
  4.7432199349574997  6.3637063903180797 24.3851376666614392
  4.7369904202709101  6.3860332821244796 12.0040145535419196
 11.0731618413395108 -4.6024715199695994 24.3812876283310800
  4.7390827479644404  4.5465685785388796 18.1991224474566025
  3.1643279542372804  3.6175015757491202 24.4003834105757598
  3.1554359373312302  3.6458147356713599 12.0044526538173102
  3.1583225694843602  1.8056256944659204 18.1981679496828690
 14.2307741254216502  0.9070273246896006 12.0054981948735389
 14.2395998448040810  0.8771813534515195 24.3772715270534412
  1.5849920649191702  0.8768572788259201 24.3879221344134187
  1.5725233045252200  0.9053340518995202 12.0070047791123518
 14.2320018954324610 -0.9333236853139198 18.1966733831573499
 11.0673551118154805 -4.5750583694092812 11.9987671829117506
 12.6496069845770105 -1.8339267957974406 12.0045677325263895
  3.1562202734280902 -1.8349917886051199 12.0035167288732101
  3.1552550036361002 -3.6751783632806401 18.1969891212610584
  7.9016762070849609 10.0291315461772808 18.1968551055492185
 11.0656858857404696 -6.4143575414313618 18.1963026549110083
  7.9119973391063700 11.8446826940707197 24.3743967443652210
  7.9026508914417599 11.8674423248486409 12.0052975354789098
 12.6487048477490394  3.6367084442361608 16.6289812573064815
  7.9025668723843800 -4.5892935357542406 19.7662446423590197
  7.9003710635919306 -6.3983862120816006 13.5711334708861706
  7.8995215375673107 -6.4240748471395195 25.9303045919024200
  7.9037395790581497 -10.0672234009967987 16.6290369757953691
  9.4832545824496197 -7.3278521075712000 16.6259910317360493
 12.6535683802842911 -3.6932672085667209 22.8029915092808722
 12.6521287430082605 -3.6605077173753608 10.4352921819062789
  7.9034341199427605 -6.4026416613407999 10.4323482063233595
  7.9147594458392403 -6.4394346140985599 22.7955762160078095
 12.6496704339969916 -1.8436419090345602 16.6254964846255078
  7.9033504173413398 -4.5862503859507200 16.6276622222296204
  9.4846383652487098 -9.1667678712201592 25.9539762095255497
 14.2321011834899096  0.8926669134364801 19.7653815520409175
  7.9025932173430506 -11.8836228981532805 10.4383454094281998
  7.9170471059740803 -11.9157194409139198 22.8118369104354421
 12.6603345251650499 -3.6862844623632007 25.9430196967363678
  6.3287774275632005 -9.1811736392179206 22.8041178967719631
  6.3206474366088301 -9.1430398533897606 10.4360838942909009
  6.3197827206981305 -7.3292123988220803 16.6267758248311992
  6.3242575662005098 -9.1674817946025602 25.9400564199775587
  6.3209935603150802 -9.1398507672326392 13.5731214920028407
 14.2326424022955003 -0.9203154805747191 13.5749496411154400
 14.2394253984561310 -0.9516706940649610 25.9434654446474866
 14.2333799820242710  0.8945329803504001 16.6292798792730778
  6.3196383376663796 -7.3278000363839988 19.7667147898698481
  9.4861450120742692 -9.1422472751088009 13.5738221611049603
 12.6482309549489411 -3.6639167357836806 13.5717849766157403
  7.9079260540669809 -11.9142515815526409 25.9491483663411415
 12.6478519989368401  1.8202327587110410 10.4368111480315111
 12.6715594554082198  1.7962928933664004 25.9564314647680092
 12.6483480436541402  1.8217647478502417 13.5752537256789907
 12.6435872010779118  1.7848050302639999 22.8147779726333191
 11.0676540044697003 -4.5877993667404802 19.7648374773847024
 12.6502602287924404  3.6340824120480013 19.7683612165905771
 11.0667320100302398 -6.3996894990854409 13.5725216988577309
 11.0684887361781907 -6.4261719456892799 25.9483012996407609
 11.0662397627844609 -4.5876415088256000 16.6265656969351916
 11.0548749590069697 -0.9484058306275195 22.8273681660836765
 11.0687366794228499 -0.9188362477699199 10.4359061778034601
 11.0693494963893908  0.8974481446569613 16.6258559235048189
 11.0935400228837118 -0.9763028321404797 25.9358382026127714
 11.0637441910839005 -0.9201370682438417 13.5725402716873589
 11.0685592267432806  0.8970492519571202 19.7666350359543799
 11.0683641316439410 -6.4051558775059201 10.4339553023460496
 11.0746947540097516 -6.4284745883990402 22.8094858087081569
  9.5006856887523305 -9.1783073944214397 22.8160525785883195
  9.4836933486381607 -7.3273977179481600 19.7650920344025707
  9.4862209615046691 -9.1426120474780799 10.4362725359722415
 12.6485004963128702 -1.8444213324892800 19.7653673492888480
  9.5002098972164699 -3.6657004480041597 22.8078382894680409
  9.4854302171746205 -3.6598006454649599 10.4281977251607501
  9.4861427177685602 -1.8448122774816007 16.6284371826502593
  9.4809981723408310 -3.7080436411996800 25.9577446730747887
  9.4858009453317607 -3.6611142096767995 13.5665376059855696
  7.9053171911327400 -10.0671117220032009 19.7661477723064394
  7.8996197971428908 -11.8817847852451202 13.5758717274806013
  9.4881392384202012 -1.8431575099641599 19.7687020826402602
 11.0709127097178008  4.5264852697536000 22.8028472967213922
  7.9034409237458991 -0.9213294984307192 13.5729929388879498
 11.0657121515851511  6.3764058677289590 16.6291280190778714
  6.3245842278652198  7.2715809680351997 22.8113580227694897
  7.9003791332189097 11.8553945594543997 19.7681183131128684
  7.9033607812740296 10.0385935660387204 13.5742657239772999
  7.9123839691755009 10.0189395704889606 25.9406230733678420
  7.9023441665025302 11.8555809194927999 16.6278275568306384
  7.9026271572447602 10.0402525814688008 10.4371177818069700
  7.9075054049821496 10.0184126922921592 22.8036218929688985
  3.1563349095995998 -1.8494964918585599 19.7672483035052977
  6.3184115170234501  7.2989639721187194 10.4363686776785602
  3.1579622843738999 -3.6628975108089601 13.5724998484699295
  3.1574421890036399 -1.8486389616230401 16.6291913852024891
  3.1552095922058405 -3.6608798893344003 10.4352455677456391
  3.1604575396184997 -3.6854468013964801 22.7993614315210316
  4.7422060100616603  0.8931359652096005 19.7676088349039993
  4.7376701676729907 -0.9209092291382404 13.5728290609794513
  4.7734667956142998 -0.9920775242438390 25.9378506233291510
  4.7405143947274802  0.8915401203513599 16.6282048401933196
  4.7382062440692305 -0.9192380180880001 10.4360758824820383
  3.1648375274468701 -3.6932587127414398 25.9332099651335604
  6.3184310581789802  9.1162855403769605 16.6277885903057303
  6.3257004471501306  7.2835001998147204 25.9495777264614098
  6.3168700600422900  7.3001043311183995 13.5735286375621804
  1.5765650800463402  0.8918215788211201 19.7673032936479309
  1.5747481481520000 -0.9256294822579201 13.5750279383383905
  1.5850089161990402 -0.9539833399238401 25.9495383957633692
  1.5759970415981399  0.8915488902355200 16.6287642101209983
  1.5725554248051601 -0.9209833620652801 10.4375631655449599
  1.5838507664994301 -0.9415666912771201 22.8085808384801076
  3.1573772364178501  3.6331819915977603 19.7679282147390083
  3.1559778681627297  1.8206486430614395 13.5755920425167602
  3.1506199523039702  1.7893678365571202 25.9754190875930817
  3.1585792943819100  3.6330638722204802 16.6287441805988507
  3.1531508879580601  1.8189948347500799 10.4367634413514789
  3.1889556646403401  1.7879993235398406 22.8382605844019828
  4.7351904978844201  6.3754725602131197 19.7667989138628819
  4.7379578261406303  4.5588953358729603 13.5742941294814408
  4.7347629658824602  4.5528179431795204 25.9707416479113604
  4.7358136787836500  6.3738804151497597 16.6288403223051695
  4.7377276044297307  4.5575878009564805 10.4373082443539591
  4.7518405908778503  4.5193458989001600 22.8328293063411571
  6.3181109629754406  9.1168002229536000 19.7644510896937717
  4.7408823538949694 -0.9280821722044801 22.8080520590953491
  6.3209854906881002  3.6293765470195196 19.7692741986274925
  6.3183385739246702  1.8170595679689601 13.5745530565768693
  6.2850759670830607  1.8316067503487996 26.0274128137094429
  6.3225942736747500 -3.7032210270883192 25.9354350629578612
  6.3201154741400698 -1.8458724742588795 16.6290661096457697
  6.3186821659832404 -3.6583549848729602 10.4316686592627796
  6.3149258337380401 -3.7076669472691202 22.7646156731877305
  7.9042940099000703  0.8950887717590406 19.7659584022788408
 14.2331469122097296 -0.9200078494819208 10.4377132048745214
  7.9048862572292107  0.8947590789264014 16.6261691123966209
  7.9017634698159300 -0.9175544743881604 10.4334982650679002
  7.9169335773984306 -0.8990883870537600 22.8931731581552924
  9.4834037914347604  3.6326334627494399 19.7670556559195312
  9.4827919238361016  1.8183757357401604 13.5747515309327191
  9.5475849367082706  1.8795151201910387 25.9771161343788819
  9.4842822731797209  3.6368246452012807 16.6288567100960201
  9.4841671623242707  1.8201980902627184 10.4377966005212883
  9.4442842176854711  1.7651330838576007 22.8851766445667515
 11.0672698269342611  6.3778724938252802 19.7666725457867685
 11.0686903977387008  4.5599917084224000 13.5737926630814290
 11.0867873273812503  4.5506820652982398 25.9440634169269480
  6.3208612817238006 -3.6627330754809608 13.5706476639307514
 11.0676320107804802  4.5579716204179190 10.4360136088768094
  6.3214896841463704 -1.8469599398947201 19.7698230075344021
  4.7367618599538011 -6.4024013117030405 10.4348351446281296
  6.3205593036239707  3.6325154804016004 16.6289411982621793
  6.3189651567254703  1.8185696323977605 10.4380915807565895
  6.3727341888890701  1.7608742088624008 22.9109200431264490
  7.8996159996713713  6.3743835872534405 19.7673036578210599
  7.9010772350666700  4.5587610470217603 13.5749561962317795
  7.9179395117812801  4.5567611023449608 25.9700941480862220
  7.9005998612510107  6.3758032122518404 16.6288902140239792
  7.9004953516702203  4.5589204122604796 10.4378228209866499
  7.8909588722016304  4.5270184513046399 22.8230417892992783
  9.4845500740358712  9.1160406687676812 19.7673091204180089
  9.4841275262152802  7.3009102012550393 13.5726149271790106
  9.5002489004135402  7.2813791211129590 25.9410520693149813
  9.4835633643525910  9.1162048300367999 16.6268912677134075
  9.4826720661412498  7.3014781882838395 10.4354050755765808
  9.4854042677859010  7.2719336818137608 22.8039117747803814
  4.7379064811611205 -4.5880734256204807 19.7645348495136730
  4.7377051360565696 -6.4013400186902407 13.5713665416893701
  4.7455800635071812 -6.4311246007392011 25.9341298664599407
  4.7391800581721402 -4.5873630650035198 16.6278581473735585
  4.7424218330263797 -6.4372448836473595 22.7918860496815192
 14.2415594192223907 -0.9450749190000005 22.8007664114565713
  8.0460607420007708 -0.6185175940060795 26.7275797210831669
  8.3300543331680110 -0.0221292953539204 28.4227353558190785
  9.5501422964350215  0.3515980848595206 29.0153215146863808
  7.5247985195022604 -0.5272451616403203 30.6979200957267579
  9.7629467459805603  0.2961351449606410 30.3922572058313385
  8.7578555600359813 -0.1630206360614412 31.2392365046601412
  7.3236091903985701 -0.4330548243791991 29.3236803782631910
 10.9567172031321007  0.6553989307526419 30.9054798428239970
  8.9763023402343300 -0.2613909193603207 32.5600476538751522
  6.5479044298475699 -0.9839926502543996 31.5062019935886291
  6.1194201327899398 -0.8347965033062402 28.8542419125173026
 10.6241762613692412  0.7343777669087999 28.2870499101780304
  7.8352457719617608 -1.8965493869068804 25.2796007715646809
